#
#  
#
%BLOCK lattice_cart
  4.4989220000000003   0.0045473000000000   0.0029393000000000
 -1.1256101000000001   4.3510954999999996  -0.0002295000000000
 -1.1250761000000000  -2.5992563000000000   3.4923706000000001
%ENDBLOCK lattice_cart

%BLOCK cell_constraints
   1   2   3
   4   5   6
%ENDBLOCK cell_constraints

%BLOCK species_pot
%ENDBLOCK species_pot

%BLOCK positions_frac
H          0.5785010000000000   0.7656970000000000   0.3638310000000000
H          0.4214990000000000   0.2343030000000000   0.6361690000000000
H          0.2357980000000000   0.7491820000000000   0.0673350000000000
H          0.7642020000000000   0.2508180000000000   0.9326650000000000
H          0.6305410000000000   0.1356280000000000   0.3280010000000000
H          0.3694590000000000   0.8643720000000000   0.6719990000000000
H          0.5726730000000000   0.7017750000000000   0.9568380000000000
H          0.4273270000000000   0.2982250000000000   0.0431620000000000
H          0.9098760000000000   0.1123333333333333   0.1913590000000000
H          0.0901240000000000   0.8876666666666667   0.8086410000000001
H          0.3240470000000000   0.2087990000000000   0.2795700000000000
H          0.6759530000000000   0.7912010000000000   0.7204300000000000
H          0.0609720000000000   0.8623160000000000   0.3686530000000000
H          0.9390280000000000   0.1376840000000000   0.6313470000000000
H          0.9192900000000001   0.7130460000000000   0.1817500000000000
H          0.0807100000000000   0.2869540000000000   0.8182500000000000
H          0.2217020000000000   0.4946030000000000   0.6286910000000000
H          0.7782980000000000   0.5053970000000000   0.3713090000000000
H          0.1649160000000000   0.5077620000000000   0.2419830000000000
H          0.8350840000000000   0.4922380000000000   0.7580170000000001
C          0.5028359999999999   0.8369280000000000   0.1771530000000000
C          0.4971640000000000   0.1630720000000000   0.8228470000000000
C          0.1572020000000000   0.3331770000000000   0.3352100000000000
C          0.8427980000000000   0.6668230000000001   0.6647900000000000
%ENDBLOCK positions_frac

%BLOCK kpoint_list
%ENDBLOCK kpoint_list

%BLOCK external_pressure
GPa
  100.0000000000    0.0000000000    0.0000000000
                  100.0000000000    0.0000000000
                                  100.0000000000
%ENDBLOCK external_pressure
