#
#  
#
%BLOCK lattice_cart
  5.2739903000000004  -0.0035088000000000  -0.0005148000000000
 -1.3280822000000001   5.1065198000000001   0.0000461000000000
 -1.3168717999999999  -3.0475444000000000   4.1006264000000003
%ENDBLOCK lattice_cart

%BLOCK cell_constraints
   1   2   3
   4   5   6
%ENDBLOCK cell_constraints

%BLOCK species_pot
%ENDBLOCK species_pot

%BLOCK positions_frac
H          0.5654290000000000   0.7716111111111111   0.3344850000000000
H          0.4345710000000000   0.2283888888888889   0.6655150000000000
H          0.2679870000000000   0.7562260000000000   0.0712120000000000
H          0.7320130000000000   0.2437740000000000   0.9287879999999999
H          0.6134070000000000   0.0987620000000000   0.3068390000000000
H          0.3865930000000000   0.9012380000000000   0.6931610000000000
H          0.5641000000000000   0.7223250000000000   0.9789360000000000
H          0.4359000000000000   0.2776750000000000   0.0210640000000000
H          0.9399140000000000   0.1470080000000000   0.2058920000000000
H          0.0600860000000000   0.8529920000000000   0.7941080000000000
H          0.3049690000000000   0.2201580000000000   0.2890180000000000
H          0.6950310000000000   0.7798420000000000   0.7109820000000000
H          0.0531090000000000   0.8412230000000001   0.3495222222222222
H          0.9468910000000000   0.1587770000000000   0.6504777777777778
H          0.9285380000000000   0.7184570000000000   0.1858810000000000
H          0.0714620000000000   0.2815430000000000   0.8141190000000000
H          0.2212690000000000   0.4789200000000000   0.5938630000000000
H          0.7787310000000000   0.5210800000000000   0.4061370000000000
H          0.1800070000000000   0.4894810000000000   0.2570360000000000
H          0.8199930000000000   0.5105189999999999   0.7429640000000000
C          0.5021590000000000   0.8366930000000000   0.1723680000000000
C          0.4978410000000000   0.1633070000000000   0.8276320000000000
C          0.1621280000000000   0.3345800000000000   0.3362470000000000
C          0.8378720000000000   0.6654200000000000   0.6637530000000000
%ENDBLOCK positions_frac

%BLOCK kpoint_list
%ENDBLOCK kpoint_list

%BLOCK external_pressure
GPa
   20.0000000000    0.0000000000    0.0000000000
                   20.0000000000    0.0000000000
                                   20.0000000000
%ENDBLOCK external_pressure
