#
#  
#
%BLOCK lattice_cart
  4.7479016999999999   0.0001783000000000   0.0029460000000000
 -1.1923744000000001   4.5950085999999999  -0.0028656000000000
 -1.1847909000000001  -2.7452562000000000   3.6893837000000000
%ENDBLOCK lattice_cart

%BLOCK cell_constraints
   1   2   3
   4   5   6
%ENDBLOCK cell_constraints

%BLOCK species_pot
%ENDBLOCK species_pot

%BLOCK positions_frac
H          0.5754089999999999   0.7676333333333333   0.3536500000000000
H          0.4245910000000000   0.2323666666666667   0.6463500000000000
H          0.2459500000000000   0.7470180000000000   0.0667120000000000
H          0.7540500000000000   0.2529820000000000   0.9332880000000000
H          0.6217920000000000   0.1226470000000000   0.3205570000000000
H          0.3782080000000000   0.8773530000000000   0.6794430000000000
H          0.5706800000000000   0.7103770000000000   0.9642030000000000
H          0.4293200000000000   0.2896230000000000   0.0357970000000000
H          0.9185160000000000   0.1241760000000000   0.1958190000000000
H          0.0814840000000000   0.8758240000000000   0.8041810000000000
H          0.3163820000000000   0.2109180000000000   0.2830790000000000
H          0.6836179999999999   0.7890820000000000   0.7169210000000000
H          0.0581610000000000   0.8540690000000000   0.3640270000000000
H          0.9418390000000000   0.1459310000000000   0.6359730000000000
H          0.9244880000000000   0.7173659999999999   0.1830830000000000
H          0.0755120000000000   0.2826340000000000   0.8169170000000000
H          0.2214680000000000   0.4901320000000000   0.6168120000000000
H          0.7785320000000000   0.5098680000000000   0.3831880000000000
H          0.1708790000000000   0.5005888888888889   0.2464960000000000
H          0.8291210000000000   0.4994111111111111   0.7535040000000000
C          0.5024050000000000   0.8360360000000000   0.1751080000000000
C          0.4975950000000000   0.1639640000000000   0.8248920000000000
C          0.1582170000000000   0.3329490000000000   0.3353580000000000
C          0.8417829999999999   0.6670509999999999   0.6646420000000000
%ENDBLOCK positions_frac

%BLOCK kpoint_list
%ENDBLOCK kpoint_list

%BLOCK external_pressure
GPa
   60.0000000000    0.0000000000    0.0000000000
                   60.0000000000    0.0000000000
                                   60.0000000000
%ENDBLOCK external_pressure
