# CELL file written 14:49:02 (GMT+1.0) 24th July 2018 from run castep

%BLOCK lattice_cart
   ANG
       4.70660974185679        0.00000000000000        0.00000000000000    
       0.00000000000000        3.32931044408391        0.00000000000000    
       0.00000000000000        0.00000000000000        5.82300703293310    
%ENDBLOCK lattice_cart

%BLOCK cell_constraints
      1   2   3
      0   0   0
%ENDBLOCK cell_constraints

%BLOCK positions_frac
   H              0.263731837057258       0.501001384714946       0.425576642608847
   H              0.837540944633228       0.261539266263348       0.827750461522529
   H              0.952994590245508       0.560842923779794       0.234659541483030
   H              0.905997092473957       0.457465786305400       0.131150845315439
   H              0.909469056078101       0.485683545903372       0.522597951033056
   H              0.676272362167216       0.260048737581461       0.328066731762052
   H              0.236268162942742       0.498998615285054       0.925576642608847
   H              0.662459055366772       0.738460733736652       0.327750461522528
   H              0.547005409754492       0.439157076220206       0.734659541483030
   H              0.594002907526043       0.542534213694600       0.631150845315439
   H              0.590530943921899       0.514316454096628       0.022597951033056
   H              0.823727637832784       0.739951262418539       0.828066731762052
   H              0.736268162942742       0.001001384714946       0.074423357391153
   H              0.162459055366772       0.761539266263348       0.672249538477471
   H              0.047005409754493       0.060842923779794       0.265340458516970
   H              0.094002907526042       0.957465786305400       0.368849154684562
   H              0.090530943921899       0.985683545903372       0.977402048966944
   H              0.323727637832784       0.760048737581461       0.171933268237948
   H              0.763731837057258       0.998998615285054       0.574423357391153
   H              0.337540944633228       0.238460733736652       0.172249538477472
   H              0.452994590245507       0.939157076220206       0.765340458516970
   H              0.405997092473958       0.042534213694600       0.868849154684561
   H              0.409469056078101       0.014316454096628       0.477402048966944
   H              0.176272362167216       0.239951262418539       0.671933268237948
   C              0.872997965250381       0.998739054809973       0.928661904845752
   C              0.627002034749619       0.001260945190027       0.428661904845751
   C              0.127002034749619       0.498739054809973       0.571338095154248
   C              0.372997965250381       0.501260945190027       0.071338095154249
%ENDBLOCK positions_frac

FIX_COM : true

%BLOCK species_gamma
   radsectesla
   H          267522128.0    
%ENDBLOCK species_gamma

%BLOCK species_pot
   H       1|0.6|13|15|17|10(qc=8)[]
   C       2|1.4|10|12|13|20:21(qc=7)[]
%ENDBLOCK species_pot

SYMMETRY_TOL :     0.001000

%BLOCK symmetry_ops
# Symm. op. 1       E
          1.000000000000000       0.000000000000000       0.000000000000000
          0.000000000000000       1.000000000000000       0.000000000000000
          0.000000000000000       0.000000000000000       1.000000000000000
          0.000000000000000       0.000000000000000       0.000000000000000
# Symm. op. 2     2_1
         -1.000000000000000       0.000000000000000       0.000000000000000
          0.000000000000000      -1.000000000000000       0.000000000000000
          0.000000000000000       0.000000000000000       1.000000000000000
          0.500000000000000       1.000000000000000       0.500000000000000
# Symm. op. 3     2_1
         -1.000000000000000       0.000000000000000       0.000000000000000
          0.000000000000000       1.000000000000000       0.000000000000000
          0.000000000000000       0.000000000000000      -1.000000000000000
          0.000000000000000       0.500000000000000       0.500000000000000
# Symm. op. 4     2_1
          1.000000000000000       0.000000000000000       0.000000000000000
          0.000000000000000      -1.000000000000000       0.000000000000000
          0.000000000000000       0.000000000000000      -1.000000000000000
          0.500000000000000       0.500000000000000       1.000000000000000
%ENDBLOCK symmetry_ops

%BLOCK kpoint_list
         -0.416666666666667      -0.437500000000000      -0.400000000000000       0.033333333333333
         -0.416666666666667      -0.437500000000000       0.000000000000000       0.016666666666667
         -0.416666666666667      -0.062500000000000      -0.200000000000000       0.033333333333333
         -0.416666666666667      -0.062500000000000       0.000000000000000       0.016666666666667
         -0.416666666666667       0.312500000000000       0.000000000000000       0.016666666666667
         -0.416666666666667       0.312500000000000       0.200000000000000       0.033333333333333
         -0.416666666666667       0.437500000000000       0.200000000000000       0.033333333333333
         -0.250000000000000      -0.437500000000000       0.000000000000000       0.016666666666667
         -0.250000000000000       0.062500000000000       0.200000000000000       0.033333333333333
         -0.250000000000000       0.062500000000000       0.400000000000000       0.033333333333333
         -0.250000000000000       0.187500000000000      -0.400000000000000       0.033333333333333
         -0.250000000000000       0.187500000000000      -0.200000000000000       0.033333333333333
         -0.250000000000000       0.187500000000000       0.000000000000000       0.016666666666667
         -0.250000000000000       0.312500000000000      -0.200000000000000       0.033333333333333
         -0.250000000000000       0.312500000000000       0.000000000000000       0.016666666666667
         -0.250000000000000       0.437500000000000      -0.400000000000000       0.033333333333333
         -0.250000000000000       0.437500000000000      -0.200000000000000       0.033333333333333
         -0.083333333333333       0.437500000000000      -0.200000000000000       0.033333333333333
          0.083333333333333      -0.437500000000000       0.400000000000000       0.033333333333333
          0.083333333333333      -0.312500000000000       0.000000000000000       0.016666666666667
          0.083333333333333      -0.312500000000000       0.200000000000000       0.033333333333333
          0.083333333333333      -0.312500000000000       0.400000000000000       0.033333333333333
          0.083333333333333      -0.187500000000000      -0.400000000000000       0.033333333333333
          0.083333333333333      -0.187500000000000      -0.200000000000000       0.033333333333333
          0.083333333333333      -0.187500000000000       0.000000000000000       0.016666666666667
          0.083333333333333      -0.062500000000000      -0.400000000000000       0.033333333333333
          0.083333333333333      -0.062500000000000      -0.200000000000000       0.033333333333333
          0.083333333333333      -0.062500000000000       0.000000000000000       0.016666666666667
          0.083333333333333       0.437500000000000       0.000000000000000       0.016666666666667
          0.250000000000000      -0.062500000000000       0.000000000000000       0.016666666666667
          0.250000000000000       0.312500000000000       0.400000000000000       0.033333333333333
          0.416666666666667      -0.312500000000000      -0.400000000000000       0.033333333333333
          0.416666666666667      -0.187500000000000      -0.400000000000000       0.033333333333333
          0.416666666666667      -0.187500000000000       0.200000000000000       0.033333333333333
          0.416666666666667       0.062500000000000      -0.400000000000000       0.033333333333333
          0.416666666666667       0.187500000000000       0.000000000000000       0.016666666666667
%ENDBLOCK kpoint_list

%BLOCK bs_kpoint_list
         -0.416666666666667      -0.437500000000000      -0.400000000000000       0.033333333333333
         -0.416666666666667      -0.437500000000000       0.000000000000000       0.016666666666667
         -0.416666666666667      -0.062500000000000      -0.200000000000000       0.033333333333333
         -0.416666666666667      -0.062500000000000       0.000000000000000       0.016666666666667
         -0.416666666666667       0.312500000000000       0.000000000000000       0.016666666666667
         -0.416666666666667       0.312500000000000       0.200000000000000       0.033333333333333
         -0.416666666666667       0.437500000000000       0.200000000000000       0.033333333333333
         -0.250000000000000      -0.437500000000000       0.000000000000000       0.016666666666667
         -0.250000000000000       0.062500000000000       0.200000000000000       0.033333333333333
         -0.250000000000000       0.062500000000000       0.400000000000000       0.033333333333333
         -0.250000000000000       0.187500000000000      -0.400000000000000       0.033333333333333
         -0.250000000000000       0.187500000000000      -0.200000000000000       0.033333333333333
         -0.250000000000000       0.187500000000000       0.000000000000000       0.016666666666667
         -0.250000000000000       0.312500000000000      -0.200000000000000       0.033333333333333
         -0.250000000000000       0.312500000000000       0.000000000000000       0.016666666666667
         -0.250000000000000       0.437500000000000      -0.400000000000000       0.033333333333333
         -0.250000000000000       0.437500000000000      -0.200000000000000       0.033333333333333
         -0.083333333333333       0.437500000000000      -0.200000000000000       0.033333333333333
          0.083333333333333      -0.437500000000000       0.400000000000000       0.033333333333333
          0.083333333333333      -0.312500000000000       0.000000000000000       0.016666666666667
          0.083333333333333      -0.312500000000000       0.200000000000000       0.033333333333333
          0.083333333333333      -0.312500000000000       0.400000000000000       0.033333333333333
          0.083333333333333      -0.187500000000000      -0.400000000000000       0.033333333333333
          0.083333333333333      -0.187500000000000      -0.200000000000000       0.033333333333333
          0.083333333333333      -0.187500000000000       0.000000000000000       0.016666666666667
          0.083333333333333      -0.062500000000000      -0.400000000000000       0.033333333333333
          0.083333333333333      -0.062500000000000      -0.200000000000000       0.033333333333333
          0.083333333333333      -0.062500000000000       0.000000000000000       0.016666666666667
          0.083333333333333       0.437500000000000       0.000000000000000       0.016666666666667
          0.250000000000000      -0.062500000000000       0.000000000000000       0.016666666666667
          0.250000000000000       0.312500000000000       0.400000000000000       0.033333333333333
          0.416666666666667      -0.312500000000000      -0.400000000000000       0.033333333333333
          0.416666666666667      -0.187500000000000      -0.400000000000000       0.033333333333333
          0.416666666666667      -0.187500000000000       0.200000000000000       0.033333333333333
          0.416666666666667       0.062500000000000      -0.400000000000000       0.033333333333333
          0.416666666666667       0.187500000000000       0.000000000000000       0.016666666666667
%ENDBLOCK bs_kpoint_list

%BLOCK spectral_kpoint_list
         -0.416666666666667      -0.437500000000000      -0.400000000000000       0.033333333333333
         -0.416666666666667      -0.437500000000000       0.000000000000000       0.016666666666667
         -0.416666666666667      -0.062500000000000      -0.200000000000000       0.033333333333333
         -0.416666666666667      -0.062500000000000       0.000000000000000       0.016666666666667
         -0.416666666666667       0.312500000000000       0.000000000000000       0.016666666666667
         -0.416666666666667       0.312500000000000       0.200000000000000       0.033333333333333
         -0.416666666666667       0.437500000000000       0.200000000000000       0.033333333333333
         -0.250000000000000      -0.437500000000000       0.000000000000000       0.016666666666667
         -0.250000000000000       0.062500000000000       0.200000000000000       0.033333333333333
         -0.250000000000000       0.062500000000000       0.400000000000000       0.033333333333333
         -0.250000000000000       0.187500000000000      -0.400000000000000       0.033333333333333
         -0.250000000000000       0.187500000000000      -0.200000000000000       0.033333333333333
         -0.250000000000000       0.187500000000000       0.000000000000000       0.016666666666667
         -0.250000000000000       0.312500000000000      -0.200000000000000       0.033333333333333
         -0.250000000000000       0.312500000000000       0.000000000000000       0.016666666666667
         -0.250000000000000       0.437500000000000      -0.400000000000000       0.033333333333333
         -0.250000000000000       0.437500000000000      -0.200000000000000       0.033333333333333
         -0.083333333333333       0.437500000000000      -0.200000000000000       0.033333333333333
          0.083333333333333      -0.437500000000000       0.400000000000000       0.033333333333333
          0.083333333333333      -0.312500000000000       0.000000000000000       0.016666666666667
          0.083333333333333      -0.312500000000000       0.200000000000000       0.033333333333333
          0.083333333333333      -0.312500000000000       0.400000000000000       0.033333333333333
          0.083333333333333      -0.187500000000000      -0.400000000000000       0.033333333333333
          0.083333333333333      -0.187500000000000      -0.200000000000000       0.033333333333333
          0.083333333333333      -0.187500000000000       0.000000000000000       0.016666666666667
          0.083333333333333      -0.062500000000000      -0.400000000000000       0.033333333333333
          0.083333333333333      -0.062500000000000      -0.200000000000000       0.033333333333333
          0.083333333333333      -0.062500000000000       0.000000000000000       0.016666666666667
          0.083333333333333       0.437500000000000       0.000000000000000       0.016666666666667
          0.250000000000000      -0.062500000000000       0.000000000000000       0.016666666666667
          0.250000000000000       0.312500000000000       0.400000000000000       0.033333333333333
          0.416666666666667      -0.312500000000000      -0.400000000000000       0.033333333333333
          0.416666666666667      -0.187500000000000      -0.400000000000000       0.033333333333333
          0.416666666666667      -0.187500000000000       0.200000000000000       0.033333333333333
          0.416666666666667       0.062500000000000      -0.400000000000000       0.033333333333333
          0.416666666666667       0.187500000000000       0.000000000000000       0.016666666666667
%ENDBLOCK spectral_kpoint_list

%BLOCK optics_kpoint_list
         -0.416666666666667      -0.437500000000000      -0.400000000000000       0.033333333333333
         -0.416666666666667      -0.437500000000000       0.000000000000000       0.016666666666667
         -0.416666666666667      -0.062500000000000      -0.200000000000000       0.033333333333333
         -0.416666666666667      -0.062500000000000       0.000000000000000       0.016666666666667
         -0.416666666666667       0.312500000000000       0.000000000000000       0.016666666666667
         -0.416666666666667       0.312500000000000       0.200000000000000       0.033333333333333
         -0.416666666666667       0.437500000000000       0.200000000000000       0.033333333333333
         -0.250000000000000      -0.437500000000000       0.000000000000000       0.016666666666667
         -0.250000000000000       0.062500000000000       0.200000000000000       0.033333333333333
         -0.250000000000000       0.062500000000000       0.400000000000000       0.033333333333333
         -0.250000000000000       0.187500000000000      -0.400000000000000       0.033333333333333
         -0.250000000000000       0.187500000000000      -0.200000000000000       0.033333333333333
         -0.250000000000000       0.187500000000000       0.000000000000000       0.016666666666667
         -0.250000000000000       0.312500000000000      -0.200000000000000       0.033333333333333
         -0.250000000000000       0.312500000000000       0.000000000000000       0.016666666666667
         -0.250000000000000       0.437500000000000      -0.400000000000000       0.033333333333333
         -0.250000000000000       0.437500000000000      -0.200000000000000       0.033333333333333
         -0.083333333333333       0.437500000000000      -0.200000000000000       0.033333333333333
          0.083333333333333      -0.437500000000000       0.400000000000000       0.033333333333333
          0.083333333333333      -0.312500000000000       0.000000000000000       0.016666666666667
          0.083333333333333      -0.312500000000000       0.200000000000000       0.033333333333333
          0.083333333333333      -0.312500000000000       0.400000000000000       0.033333333333333
          0.083333333333333      -0.187500000000000      -0.400000000000000       0.033333333333333
          0.083333333333333      -0.187500000000000      -0.200000000000000       0.033333333333333
          0.083333333333333      -0.187500000000000       0.000000000000000       0.016666666666667
          0.083333333333333      -0.062500000000000      -0.400000000000000       0.033333333333333
          0.083333333333333      -0.062500000000000      -0.200000000000000       0.033333333333333
          0.083333333333333      -0.062500000000000       0.000000000000000       0.016666666666667
          0.083333333333333       0.437500000000000       0.000000000000000       0.016666666666667
          0.250000000000000      -0.062500000000000       0.000000000000000       0.016666666666667
          0.250000000000000       0.312500000000000       0.400000000000000       0.033333333333333
          0.416666666666667      -0.312500000000000      -0.400000000000000       0.033333333333333
          0.416666666666667      -0.187500000000000      -0.400000000000000       0.033333333333333
          0.416666666666667      -0.187500000000000       0.200000000000000       0.033333333333333
          0.416666666666667       0.062500000000000      -0.400000000000000       0.033333333333333
          0.416666666666667       0.187500000000000       0.000000000000000       0.016666666666667
%ENDBLOCK optics_kpoint_list

%BLOCK elnes_kpoint_list
         -0.416666666666667      -0.437500000000000      -0.400000000000000       0.033333333333333
         -0.416666666666667      -0.437500000000000       0.000000000000000       0.016666666666667
         -0.416666666666667      -0.062500000000000      -0.200000000000000       0.033333333333333
         -0.416666666666667      -0.062500000000000       0.000000000000000       0.016666666666667
         -0.416666666666667       0.312500000000000       0.000000000000000       0.016666666666667
         -0.416666666666667       0.312500000000000       0.200000000000000       0.033333333333333
         -0.416666666666667       0.437500000000000       0.200000000000000       0.033333333333333
         -0.250000000000000      -0.437500000000000       0.000000000000000       0.016666666666667
         -0.250000000000000       0.062500000000000       0.200000000000000       0.033333333333333
         -0.250000000000000       0.062500000000000       0.400000000000000       0.033333333333333
         -0.250000000000000       0.187500000000000      -0.400000000000000       0.033333333333333
         -0.250000000000000       0.187500000000000      -0.200000000000000       0.033333333333333
         -0.250000000000000       0.187500000000000       0.000000000000000       0.016666666666667
         -0.250000000000000       0.312500000000000      -0.200000000000000       0.033333333333333
         -0.250000000000000       0.312500000000000       0.000000000000000       0.016666666666667
         -0.250000000000000       0.437500000000000      -0.400000000000000       0.033333333333333
         -0.250000000000000       0.437500000000000      -0.200000000000000       0.033333333333333
         -0.083333333333333       0.437500000000000      -0.200000000000000       0.033333333333333
          0.083333333333333      -0.437500000000000       0.400000000000000       0.033333333333333
          0.083333333333333      -0.312500000000000       0.000000000000000       0.016666666666667
          0.083333333333333      -0.312500000000000       0.200000000000000       0.033333333333333
          0.083333333333333      -0.312500000000000       0.400000000000000       0.033333333333333
          0.083333333333333      -0.187500000000000      -0.400000000000000       0.033333333333333
          0.083333333333333      -0.187500000000000      -0.200000000000000       0.033333333333333
          0.083333333333333      -0.187500000000000       0.000000000000000       0.016666666666667
          0.083333333333333      -0.062500000000000      -0.400000000000000       0.033333333333333
          0.083333333333333      -0.062500000000000      -0.200000000000000       0.033333333333333
          0.083333333333333      -0.062500000000000       0.000000000000000       0.016666666666667
          0.083333333333333       0.437500000000000       0.000000000000000       0.016666666666667
          0.250000000000000      -0.062500000000000       0.000000000000000       0.016666666666667
          0.250000000000000       0.312500000000000       0.400000000000000       0.033333333333333
          0.416666666666667      -0.312500000000000      -0.400000000000000       0.033333333333333
          0.416666666666667      -0.187500000000000      -0.400000000000000       0.033333333333333
          0.416666666666667      -0.187500000000000       0.200000000000000       0.033333333333333
          0.416666666666667       0.062500000000000      -0.400000000000000       0.033333333333333
          0.416666666666667       0.187500000000000       0.000000000000000       0.016666666666667
%ENDBLOCK elnes_kpoint_list

%BLOCK magres_kpoint_list
         -0.416666666666667      -0.437500000000000      -0.400000000000000       0.033333333333333
         -0.416666666666667      -0.437500000000000       0.000000000000000       0.016666666666667
         -0.416666666666667      -0.062500000000000      -0.200000000000000       0.033333333333333
         -0.416666666666667      -0.062500000000000       0.000000000000000       0.016666666666667
         -0.416666666666667       0.312500000000000       0.000000000000000       0.016666666666667
         -0.416666666666667       0.312500000000000       0.200000000000000       0.033333333333333
         -0.416666666666667       0.437500000000000       0.200000000000000       0.033333333333333
         -0.250000000000000      -0.437500000000000       0.000000000000000       0.016666666666667
         -0.250000000000000       0.062500000000000       0.200000000000000       0.033333333333333
         -0.250000000000000       0.062500000000000       0.400000000000000       0.033333333333333
         -0.250000000000000       0.187500000000000      -0.400000000000000       0.033333333333333
         -0.250000000000000       0.187500000000000      -0.200000000000000       0.033333333333333
         -0.250000000000000       0.187500000000000       0.000000000000000       0.016666666666667
         -0.250000000000000       0.312500000000000      -0.200000000000000       0.033333333333333
         -0.250000000000000       0.312500000000000       0.000000000000000       0.016666666666667
         -0.250000000000000       0.437500000000000      -0.400000000000000       0.033333333333333
         -0.250000000000000       0.437500000000000      -0.200000000000000       0.033333333333333
         -0.083333333333333       0.437500000000000      -0.200000000000000       0.033333333333333
          0.083333333333333      -0.437500000000000       0.400000000000000       0.033333333333333
          0.083333333333333      -0.312500000000000       0.000000000000000       0.016666666666667
          0.083333333333333      -0.312500000000000       0.200000000000000       0.033333333333333
          0.083333333333333      -0.312500000000000       0.400000000000000       0.033333333333333
          0.083333333333333      -0.187500000000000      -0.400000000000000       0.033333333333333
          0.083333333333333      -0.187500000000000      -0.200000000000000       0.033333333333333
          0.083333333333333      -0.187500000000000       0.000000000000000       0.016666666666667
          0.083333333333333      -0.062500000000000      -0.400000000000000       0.033333333333333
          0.083333333333333      -0.062500000000000      -0.200000000000000       0.033333333333333
          0.083333333333333      -0.062500000000000       0.000000000000000       0.016666666666667
          0.083333333333333       0.437500000000000       0.000000000000000       0.016666666666667
          0.250000000000000      -0.062500000000000       0.000000000000000       0.016666666666667
          0.250000000000000       0.312500000000000       0.400000000000000       0.033333333333333
          0.416666666666667      -0.312500000000000      -0.400000000000000       0.033333333333333
          0.416666666666667      -0.187500000000000      -0.400000000000000       0.033333333333333
          0.416666666666667      -0.187500000000000       0.200000000000000       0.033333333333333
          0.416666666666667       0.062500000000000      -0.400000000000000       0.033333333333333
          0.416666666666667       0.187500000000000       0.000000000000000       0.016666666666667
%ENDBLOCK magres_kpoint_list

%BLOCK supercell_kpoint_list
          0.000000000000000       0.000000000000000       0.000000000000000       1.000000000000000
%ENDBLOCK supercell_kpoint_list

%BLOCK phonon_kpoint_list
         -0.416666666666667      -0.437500000000000      -0.400000000000000       0.033333333333333
         -0.416666666666667      -0.437500000000000       0.000000000000000       0.016666666666667
         -0.416666666666667      -0.062500000000000      -0.200000000000000       0.033333333333333
         -0.416666666666667      -0.062500000000000       0.000000000000000       0.016666666666667
         -0.416666666666667       0.312500000000000       0.000000000000000       0.016666666666667
         -0.416666666666667       0.312500000000000       0.200000000000000       0.033333333333333
         -0.416666666666667       0.437500000000000       0.200000000000000       0.033333333333333
         -0.250000000000000      -0.437500000000000       0.000000000000000       0.016666666666667
         -0.250000000000000       0.062500000000000       0.200000000000000       0.033333333333333
         -0.250000000000000       0.062500000000000       0.400000000000000       0.033333333333333
         -0.250000000000000       0.187500000000000      -0.400000000000000       0.033333333333333
         -0.250000000000000       0.187500000000000      -0.200000000000000       0.033333333333333
         -0.250000000000000       0.187500000000000       0.000000000000000       0.016666666666667
         -0.250000000000000       0.312500000000000      -0.200000000000000       0.033333333333333
         -0.250000000000000       0.312500000000000       0.000000000000000       0.016666666666667
         -0.250000000000000       0.437500000000000      -0.400000000000000       0.033333333333333
         -0.250000000000000       0.437500000000000      -0.200000000000000       0.033333333333333
         -0.083333333333333       0.437500000000000      -0.200000000000000       0.033333333333333
          0.083333333333333      -0.437500000000000       0.400000000000000       0.033333333333333
          0.083333333333333      -0.312500000000000       0.000000000000000       0.016666666666667
          0.083333333333333      -0.312500000000000       0.200000000000000       0.033333333333333
          0.083333333333333      -0.312500000000000       0.400000000000000       0.033333333333333
          0.083333333333333      -0.187500000000000      -0.400000000000000       0.033333333333333
          0.083333333333333      -0.187500000000000      -0.200000000000000       0.033333333333333
          0.083333333333333      -0.187500000000000       0.000000000000000       0.016666666666667
          0.083333333333333      -0.062500000000000      -0.400000000000000       0.033333333333333
          0.083333333333333      -0.062500000000000      -0.200000000000000       0.033333333333333
          0.083333333333333      -0.062500000000000       0.000000000000000       0.016666666666667
          0.083333333333333       0.437500000000000       0.000000000000000       0.016666666666667
          0.250000000000000      -0.062500000000000       0.000000000000000       0.016666666666667
          0.250000000000000       0.312500000000000       0.400000000000000       0.033333333333333
          0.416666666666667      -0.312500000000000      -0.400000000000000       0.033333333333333
          0.416666666666667      -0.187500000000000      -0.400000000000000       0.033333333333333
          0.416666666666667      -0.187500000000000       0.200000000000000       0.033333333333333