# CELL file written 03:14:03 (GMT+1.0) 5th July 2018 from run castep

%BLOCK lattice_cart
   ANG
       4.45330402475102        0.00000000000000        0.00000000000000    
       0.00000000000000        3.15481163427713        0.00000000000000    
       0.00000000000000        0.00000000000000        5.49915516072410    
%ENDBLOCK lattice_cart

%BLOCK cell_constraints
      1   2   3
      0   0   0
%ENDBLOCK cell_constraints

%BLOCK positions_frac
   H              0.267230628283525       0.502010247977700       0.416613546686827
   H              0.836159073693640       0.274504420279550       0.824622624727608
   H              0.952444292236842       0.560795642628099       0.240088742850994
   H              0.915164333077013       0.458992137067223       0.126161080992487
   H              0.897882809034456       0.481513700828478       0.526058131611733
   H              0.683177701225017       0.268578656056969       0.323429167055944
   H              0.232769371716475       0.497989752022300       0.916613546686826
   H              0.663840926306360       0.725495579720450       0.324622624727608
   H              0.547555707763158       0.439204357371901       0.740088742850994
   H              0.584835666922987       0.541007862932777       0.626161080992487
   H              0.602117190965544       0.518486299171522       0.026058131611733
   H              0.816822298774983       0.731421343943031       0.823429167055944
   H              0.732769371716475       0.002010247977700       0.083386453313173
   H              0.163840926306360       0.774504420279550       0.675377375272392
   H              0.047555707763158       0.060795642628099       0.259911257149006
   H              0.084835666922986       0.958992137067223       0.373838919007513
   H              0.102117190965544       0.981513700828478       0.973941868388267
   H              0.316822298774983       0.768578656056969       0.176570832944056
   H              0.767230628283525       0.997989752022300       0.583386453313174
   H              0.336159073693640       0.225495579720450       0.175377375272392
   H              0.452444292236842       0.939204357371901       0.759911257149006
   H              0.415164333077014       0.041007862932777       0.873838919007513
   H              0.397882809034456       0.018486299171522       0.473941868388267
   H              0.183177701225017       0.231421343943031       0.676570832944056
   C              0.873117921597010       0.999058674818985       0.929218520820166
   C              0.626882078402990       0.000941325181015       0.429218520820165
   C              0.126882078402989       0.499058674818985       0.570781479179834
   C              0.373117921597011       0.500941325181015       0.070781479179835
%ENDBLOCK positions_frac

FIX_COM : true

%BLOCK species_gamma
   radsectesla
   H          267522128.0    
%ENDBLOCK species_gamma

%BLOCK species_pot
   H       1|0.6|13|15|17|10(qc=8)[]
   C       2|1.4|10|12|13|20:21(qc=7)[]
%ENDBLOCK species_pot

SYMMETRY_TOL :     0.001000

%BLOCK symmetry_ops
# Symm. op. 1       E
          1.000000000000000       0.000000000000000       0.000000000000000
          0.000000000000000       1.000000000000000       0.000000000000000
          0.000000000000000       0.000000000000000       1.000000000000000
          0.000000000000000       0.000000000000000       0.000000000000000
# Symm. op. 2     2_1
         -1.000000000000000       0.000000000000000       0.000000000000000
          0.000000000000000      -1.000000000000000       0.000000000000000
          0.000000000000000       0.000000000000000       1.000000000000000
          0.500000000000000       1.000000000000000       0.500000000000000
# Symm. op. 3     2_1
         -1.000000000000000       0.000000000000000       0.000000000000000
          0.000000000000000       1.000000000000000       0.000000000000000
          0.000000000000000       0.000000000000000      -1.000000000000000
          0.000000000000000       0.500000000000000       0.500000000000000
# Symm. op. 4     2_1
          1.000000000000000       0.000000000000000       0.000000000000000
          0.000000000000000      -1.000000000000000       0.000000000000000
          0.000000000000000       0.000000000000000      -1.000000000000000
          0.500000000000000       0.500000000000000       1.000000000000000
%ENDBLOCK symmetry_ops

%BLOCK kpoint_list
         -0.416666666666667      -0.437500000000000      -0.400000000000000       0.033333333333333
         -0.416666666666667      -0.437500000000000       0.000000000000000       0.016666666666667
         -0.416666666666667      -0.062500000000000      -0.200000000000000       0.033333333333333
         -0.416666666666667      -0.062500000000000       0.000000000000000       0.016666666666667
         -0.416666666666667       0.312500000000000       0.000000000000000       0.016666666666667
         -0.416666666666667       0.312500000000000       0.200000000000000       0.033333333333333
         -0.416666666666667       0.437500000000000       0.200000000000000       0.033333333333333
         -0.250000000000000      -0.437500000000000       0.000000000000000       0.016666666666667
         -0.250000000000000       0.062500000000000       0.200000000000000       0.033333333333333
         -0.250000000000000       0.062500000000000       0.400000000000000       0.033333333333333
         -0.250000000000000       0.187500000000000      -0.400000000000000       0.033333333333333
         -0.250000000000000       0.187500000000000      -0.200000000000000       0.033333333333333
         -0.250000000000000       0.187500000000000       0.000000000000000       0.016666666666667
         -0.250000000000000       0.312500000000000      -0.200000000000000       0.033333333333333
         -0.250000000000000       0.312500000000000       0.000000000000000       0.016666666666667
         -0.250000000000000       0.437500000000000      -0.400000000000000       0.033333333333333
         -0.250000000000000       0.437500000000000      -0.200000000000000       0.033333333333333
         -0.083333333333333       0.437500000000000      -0.200000000000000       0.033333333333333
          0.083333333333333      -0.437500000000000       0.400000000000000       0.033333333333333
          0.083333333333333      -0.312500000000000       0.000000000000000       0.016666666666667
          0.083333333333333      -0.312500000000000       0.200000000000000       0.033333333333333
          0.083333333333333      -0.312500000000000       0.400000000000000       0.033333333333333
          0.083333333333333      -0.187500000000000      -0.400000000000000       0.033333333333333
          0.083333333333333      -0.187500000000000      -0.200000000000000       0.033333333333333
          0.083333333333333      -0.187500000000000       0.000000000000000       0.016666666666667
          0.083333333333333      -0.062500000000000      -0.400000000000000       0.033333333333333
          0.083333333333333      -0.062500000000000      -0.200000000000000       0.033333333333333
          0.083333333333333      -0.062500000000000       0.000000000000000       0.016666666666667
          0.083333333333333       0.437500000000000       0.000000000000000       0.016666666666667
          0.250000000000000      -0.062500000000000       0.000000000000000       0.016666666666667
          0.250000000000000       0.312500000000000       0.400000000000000       0.033333333333333
          0.416666666666667      -0.312500000000000      -0.400000000000000       0.033333333333333
          0.416666666666667      -0.187500000000000      -0.400000000000000       0.033333333333333
          0.416666666666667      -0.187500000000000       0.200000000000000       0.033333333333333
          0.416666666666667       0.062500000000000      -0.400000000000000       0.033333333333333
          0.416666666666667       0.187500000000000       0.000000000000000       0.016666666666667
%ENDBLOCK kpoint_list

%BLOCK bs_kpoint_list
         -0.416666666666667      -0.437500000000000      -0.400000000000000       0.033333333333333
         -0.416666666666667      -0.437500000000000       0.000000000000000       0.016666666666667
         -0.416666666666667      -0.062500000000000      -0.200000000000000       0.033333333333333
         -0.416666666666667      -0.062500000000000       0.000000000000000       0.016666666666667
         -0.416666666666667       0.312500000000000       0.000000000000000       0.016666666666667
         -0.416666666666667       0.312500000000000       0.200000000000000       0.033333333333333
         -0.416666666666667       0.437500000000000       0.200000000000000       0.033333333333333
         -0.250000000000000      -0.437500000000000       0.000000000000000       0.016666666666667
         -0.250000000000000       0.062500000000000       0.200000000000000       0.033333333333333
         -0.250000000000000       0.062500000000000       0.400000000000000       0.033333333333333
         -0.250000000000000       0.187500000000000      -0.400000000000000       0.033333333333333
         -0.250000000000000       0.187500000000000      -0.200000000000000       0.033333333333333
         -0.250000000000000       0.187500000000000       0.000000000000000       0.016666666666667
         -0.250000000000000       0.312500000000000      -0.200000000000000       0.033333333333333
         -0.250000000000000       0.312500000000000       0.000000000000000       0.016666666666667
         -0.250000000000000       0.437500000000000      -0.400000000000000       0.033333333333333
         -0.250000000000000       0.437500000000000      -0.200000000000000       0.033333333333333
         -0.083333333333333       0.437500000000000      -0.200000000000000       0.033333333333333
          0.083333333333333      -0.437500000000000       0.400000000000000       0.033333333333333
          0.083333333333333      -0.312500000000000       0.000000000000000       0.016666666666667
          0.083333333333333      -0.312500000000000       0.200000000000000       0.033333333333333
          0.083333333333333      -0.312500000000000       0.400000000000000       0.033333333333333
          0.083333333333333      -0.187500000000000      -0.400000000000000       0.033333333333333
          0.083333333333333      -0.187500000000000      -0.200000000000000       0.033333333333333
          0.083333333333333      -0.187500000000000       0.000000000000000       0.016666666666667
          0.083333333333333      -0.062500000000000      -0.400000000000000       0.033333333333333
          0.083333333333333      -0.062500000000000      -0.200000000000000       0.033333333333333
          0.083333333333333      -0.062500000000000       0.000000000000000       0.016666666666667
          0.083333333333333       0.437500000000000       0.000000000000000       0.016666666666667
          0.250000000000000      -0.062500000000000       0.000000000000000       0.016666666666667
          0.250000000000000       0.312500000000000       0.400000000000000       0.033333333333333
          0.416666666666667      -0.312500000000000      -0.400000000000000       0.033333333333333
          0.416666666666667      -0.187500000000000      -0.400000000000000       0.033333333333333
          0.416666666666667      -0.187500000000000       0.200000000000000       0.033333333333333
          0.416666666666667       0.062500000000000      -0.400000000000000       0.033333333333333
          0.416666666666667       0.187500000000000       0.000000000000000       0.016666666666667
%ENDBLOCK bs_kpoint_list

%BLOCK spectral_kpoint_list
         -0.416666666666667      -0.437500000000000      -0.400000000000000       0.033333333333333
         -0.416666666666667      -0.437500000000000       0.000000000000000       0.016666666666667
         -0.416666666666667      -0.062500000000000      -0.200000000000000       0.033333333333333
         -0.416666666666667      -0.062500000000000       0.000000000000000       0.016666666666667
         -0.416666666666667       0.312500000000000       0.000000000000000       0.016666666666667
         -0.416666666666667       0.312500000000000       0.200000000000000       0.033333333333333
         -0.416666666666667       0.437500000000000       0.200000000000000       0.033333333333333
         -0.250000000000000      -0.437500000000000       0.000000000000000       0.016666666666667
         -0.250000000000000       0.062500000000000       0.200000000000000       0.033333333333333
         -0.250000000000000       0.062500000000000       0.400000000000000       0.033333333333333
         -0.250000000000000       0.187500000000000      -0.400000000000000       0.033333333333333
         -0.250000000000000       0.187500000000000      -0.200000000000000       0.033333333333333
         -0.250000000000000       0.187500000000000       0.000000000000000       0.016666666666667
         -0.250000000000000       0.312500000000000      -0.200000000000000       0.033333333333333
         -0.250000000000000       0.312500000000000       0.000000000000000       0.016666666666667
         -0.250000000000000       0.437500000000000      -0.400000000000000       0.033333333333333
         -0.250000000000000       0.437500000000000      -0.200000000000000       0.033333333333333
         -0.083333333333333       0.437500000000000      -0.200000000000000       0.033333333333333
          0.083333333333333      -0.437500000000000       0.400000000000000       0.033333333333333
          0.083333333333333      -0.312500000000000       0.000000000000000       0.016666666666667
          0.083333333333333      -0.312500000000000       0.200000000000000       0.033333333333333
          0.083333333333333      -0.312500000000000       0.400000000000000       0.033333333333333
          0.083333333333333      -0.187500000000000      -0.400000000000000       0.033333333333333
          0.083333333333333      -0.187500000000000      -0.200000000000000       0.033333333333333
          0.083333333333333      -0.187500000000000       0.000000000000000       0.016666666666667
          0.083333333333333      -0.062500000000000      -0.400000000000000       0.033333333333333
          0.083333333333333      -0.062500000000000      -0.200000000000000       0.033333333333333
          0.083333333333333      -0.062500000000000       0.000000000000000       0.016666666666667
          0.083333333333333       0.437500000000000       0.000000000000000       0.016666666666667
          0.250000000000000      -0.062500000000000       0.000000000000000       0.016666666666667
          0.250000000000000       0.312500000000000       0.400000000000000       0.033333333333333
          0.416666666666667      -0.312500000000000      -0.400000000000000       0.033333333333333
          0.416666666666667      -0.187500000000000      -0.400000000000000       0.033333333333333
          0.416666666666667      -0.187500000000000       0.200000000000000       0.033333333333333
          0.416666666666667       0.062500000000000      -0.400000000000000       0.033333333333333
          0.416666666666667       0.187500000000000       0.000000000000000       0.016666666666667
%ENDBLOCK spectral_kpoint_list

%BLOCK optics_kpoint_list
         -0.416666666666667      -0.437500000000000      -0.400000000000000       0.033333333333333
         -0.416666666666667      -0.437500000000000       0.000000000000000       0.016666666666667
         -0.416666666666667      -0.062500000000000      -0.200000000000000       0.033333333333333
         -0.416666666666667      -0.062500000000000       0.000000000000000       0.016666666666667
         -0.416666666666667       0.312500000000000       0.000000000000000       0.016666666666667
         -0.416666666666667       0.312500000000000       0.200000000000000       0.033333333333333
         -0.416666666666667       0.437500000000000       0.200000000000000       0.033333333333333
         -0.250000000000000      -0.437500000000000       0.000000000000000       0.016666666666667
         -0.250000000000000       0.062500000000000       0.200000000000000       0.033333333333333
         -0.250000000000000       0.062500000000000       0.400000000000000       0.033333333333333
         -0.250000000000000       0.187500000000000      -0.400000000000000       0.033333333333333
         -0.250000000000000       0.187500000000000      -0.200000000000000       0.033333333333333
         -0.250000000000000       0.187500000000000       0.000000000000000       0.016666666666667
         -0.250000000000000       0.312500000000000      -0.200000000000000       0.033333333333333
         -0.250000000000000       0.312500000000000       0.000000000000000       0.016666666666667
         -0.250000000000000       0.437500000000000      -0.400000000000000       0.033333333333333
         -0.250000000000000       0.437500000000000      -0.200000000000000       0.033333333333333
         -0.083333333333333       0.437500000000000      -0.200000000000000       0.033333333333333
          0.083333333333333      -0.437500000000000       0.400000000000000       0.033333333333333
          0.083333333333333      -0.312500000000000       0.000000000000000       0.016666666666667
          0.083333333333333      -0.312500000000000       0.200000000000000       0.033333333333333
          0.083333333333333      -0.312500000000000       0.400000000000000       0.033333333333333
          0.083333333333333      -0.187500000000000      -0.400000000000000       0.033333333333333
          0.083333333333333      -0.187500000000000      -0.200000000000000       0.033333333333333
          0.083333333333333      -0.187500000000000       0.000000000000000       0.016666666666667
          0.083333333333333      -0.062500000000000      -0.400000000000000       0.033333333333333
          0.083333333333333      -0.062500000000000      -0.200000000000000       0.033333333333333
          0.083333333333333      -0.062500000000000       0.000000000000000       0.016666666666667
          0.083333333333333       0.437500000000000       0.000000000000000       0.016666666666667
          0.250000000000000      -0.062500000000000       0.000000000000000       0.016666666666667
          0.250000000000000       0.312500000000000       0.400000000000000       0.033333333333333
          0.416666666666667      -0.312500000000000      -0.400000000000000       0.033333333333333
          0.416666666666667      -0.187500000000000      -0.400000000000000       0.033333333333333
          0.416666666666667      -0.187500000000000       0.200000000000000       0.033333333333333
          0.416666666666667       0.062500000000000      -0.400000000000000       0.033333333333333
          0.416666666666667       0.187500000000000       0.000000000000000       0.016666666666667
%ENDBLOCK optics_kpoint_list

%BLOCK elnes_kpoint_list
         -0.416666666666667      -0.437500000000000      -0.400000000000000       0.033333333333333
         -0.416666666666667      -0.437500000000000       0.000000000000000       0.016666666666667
         -0.416666666666667      -0.062500000000000      -0.200000000000000       0.033333333333333
         -0.416666666666667      -0.062500000000000       0.000000000000000       0.016666666666667
         -0.416666666666667       0.312500000000000       0.000000000000000       0.016666666666667
         -0.416666666666667       0.312500000000000       0.200000000000000       0.033333333333333
         -0.416666666666667       0.437500000000000       0.200000000000000       0.033333333333333
         -0.250000000000000      -0.437500000000000       0.000000000000000       0.016666666666667
         -0.250000000000000       0.062500000000000       0.200000000000000       0.033333333333333
         -0.250000000000000       0.062500000000000       0.400000000000000       0.033333333333333
         -0.250000000000000       0.187500000000000      -0.400000000000000       0.033333333333333
         -0.250000000000000       0.187500000000000      -0.200000000000000       0.033333333333333
         -0.250000000000000       0.187500000000000       0.000000000000000       0.016666666666667
         -0.250000000000000       0.312500000000000      -0.200000000000000       0.033333333333333
         -0.250000000000000       0.312500000000000       0.000000000000000       0.016666666666667
         -0.250000000000000       0.437500000000000      -0.400000000000000       0.033333333333333
         -0.250000000000000       0.437500000000000      -0.200000000000000       0.033333333333333
         -0.083333333333333       0.437500000000000      -0.200000000000000       0.033333333333333
          0.083333333333333      -0.437500000000000       0.400000000000000       0.033333333333333
          0.083333333333333      -0.312500000000000       0.000000000000000       0.016666666666667
          0.083333333333333      -0.312500000000000       0.200000000000000       0.033333333333333
          0.083333333333333      -0.312500000000000       0.400000000000000       0.033333333333333
          0.083333333333333      -0.187500000000000      -0.400000000000000       0.033333333333333
          0.083333333333333      -0.187500000000000      -0.200000000000000       0.033333333333333
          0.083333333333333      -0.187500000000000       0.000000000000000       0.016666666666667
          0.083333333333333      -0.062500000000000      -0.400000000000000       0.033333333333333
          0.083333333333333      -0.062500000000000      -0.200000000000000       0.033333333333333
          0.083333333333333      -0.062500000000000       0.000000000000000       0.016666666666667
          0.083333333333333       0.437500000000000       0.000000000000000       0.016666666666667
          0.250000000000000      -0.062500000000000       0.000000000000000       0.016666666666667
          0.250000000000000       0.312500000000000       0.400000000000000       0.033333333333333
          0.416666666666667      -0.312500000000000      -0.400000000000000       0.033333333333333
          0.416666666666667      -0.187500000000000      -0.400000000000000       0.033333333333333
          0.416666666666667      -0.187500000000000       0.200000000000000       0.033333333333333
          0.416666666666667       0.062500000000000      -0.400000000000000       0.033333333333333
          0.416666666666667       0.187500000000000       0.000000000000000       0.016666666666667
%ENDBLOCK elnes_kpoint_list

%BLOCK magres_kpoint_list
         -0.416666666666667      -0.437500000000000      -0.400000000000000       0.033333333333333
         -0.416666666666667      -0.437500000000000       0.000000000000000       0.016666666666667
         -0.416666666666667      -0.062500000000000      -0.200000000000000       0.033333333333333
         -0.416666666666667      -0.062500000000000       0.000000000000000       0.016666666666667
         -0.416666666666667       0.312500000000000       0.000000000000000       0.016666666666667
         -0.416666666666667       0.312500000000000       0.200000000000000       0.033333333333333
         -0.416666666666667       0.437500000000000       0.200000000000000       0.033333333333333
         -0.250000000000000      -0.437500000000000       0.000000000000000       0.016666666666667
         -0.250000000000000       0.062500000000000       0.200000000000000       0.033333333333333
         -0.250000000000000       0.062500000000000       0.400000000000000       0.033333333333333
         -0.250000000000000       0.187500000000000      -0.400000000000000       0.033333333333333
         -0.250000000000000       0.187500000000000      -0.200000000000000       0.033333333333333
         -0.250000000000000       0.187500000000000       0.000000000000000       0.016666666666667
         -0.250000000000000       0.312500000000000      -0.200000000000000       0.033333333333333
         -0.250000000000000       0.312500000000000       0.000000000000000       0.016666666666667
         -0.250000000000000       0.437500000000000      -0.400000000000000       0.033333333333333
         -0.250000000000000       0.437500000000000      -0.200000000000000       0.033333333333333
         -0.083333333333333       0.437500000000000      -0.200000000000000       0.033333333333333
          0.083333333333333      -0.437500000000000       0.400000000000000       0.033333333333333
          0.083333333333333      -0.312500000000000       0.000000000000000       0.016666666666667
          0.083333333333333      -0.312500000000000       0.200000000000000       0.033333333333333
          0.083333333333333      -0.312500000000000       0.400000000000000       0.033333333333333
          0.083333333333333      -0.187500000000000      -0.400000000000000       0.033333333333333
          0.083333333333333      -0.187500000000000      -0.200000000000000       0.033333333333333
          0.083333333333333      -0.187500000000000       0.000000000000000       0.016666666666667
          0.083333333333333      -0.062500000000000      -0.400000000000000       0.033333333333333
          0.083333333333333      -0.062500000000000      -0.200000000000000       0.033333333333333
          0.083333333333333      -0.062500000000000       0.000000000000000       0.016666666666667
          0.083333333333333       0.437500000000000       0.000000000000000       0.016666666666667
          0.250000000000000      -0.062500000000000       0.000000000000000       0.016666666666667
          0.250000000000000       0.312500000000000       0.400000000000000       0.033333333333333
          0.416666666666667      -0.312500000000000      -0.400000000000000       0.033333333333333
          0.416666666666667      -0.187500000000000      -0.400000000000000       0.033333333333333
          0.416666666666667      -0.187500000000000       0.200000000000000       0.033333333333333
          0.416666666666667       0.062500000000000      -0.400000000000000       0.033333333333333
          0.416666666666667       0.187500000000000       0.000000000000000       0.016666666666667
%ENDBLOCK magres_kpoint_list

%BLOCK supercell_kpoint_list
          0.000000000000000       0.000000000000000       0.000000000000000       1.000000000000000
%ENDBLOCK supercell_kpoint_list

%BLOCK phonon_kpoint_list
         -0.416666666666667      -0.437500000000000      -0.400000000000000       0.033333333333333
         -0.416666666666667      -0.437500000000000       0.000000000000000       0.016666666666667
         -0.416666666666667      -0.062500000000000      -0.200000000000000       0.033333333333333
         -0.416666666666667      -0.062500000000000       0.000000000000000       0.016666666666667
         -0.416666666666667       0.312500000000000       0.000000000000000       0.016666666666667
         -0.416666666666667       0.312500000000000       0.200000000000000       0.033333333333333
         -0.416666666666667       0.437500000000000       0.200000000000000       0.033333333333333
         -0.250000000000000      -0.437500000000000       0.000000000000000       0.016666666666667
         -0.250000000000000       0.062500000000000       0.200000000000000       0.033333333333333
         -0.250000000000000       0.062500000000000       0.400000000000000       0.033333333333333
         -0.250000000000000       0.187500000000000      -0.400000000000000       0.033333333333333
         -0.250000000000000       0.187500000000000      -0.200000000000000       0.033333333333333
         -0.250000000000000       0.187500000000000       0.000000000000000       0.016666666666667
         -0.250000000000000       0.312500000000000      -0.200000000000000       0.033333333333333
         -0.250000000000000       0.312500000000000       0.000000000000000       0.016666666666667
         -0.250000000000000       0.437500000000000      -0.400000000000000       0.033333333333333
         -0.250000000000000       0.437500000000000      -0.200000000000000       0.033333333333333
         -0.083333333333333       0.437500000000000      -0.200000000000000       0.033333333333333
          0.083333333333333      -0.437500000000000       0.400000000000000       0.033333333333333
          0.083333333333333      -0.312500000000000       0.000000000000000       0.016666666666667
          0.083333333333333      -0.312500000000000       0.200000000000000       0.033333333333333
          0.083333333333333      -0.312500000000000       0.400000000000000       0.033333333333333
          0.083333333333333      -0.187500000000000      -0.400000000000000       0.033333333333333
          0.083333333333333      -0.187500000000000      -0.200000000000000       0.033333333333333
          0.083333333333333      -0.187500000000000       0.000000000000000       0.016666666666667
          0.083333333333333      -0.062500000000000      -0.400000000000000       0.033333333333333
          0.083333333333333      -0.062500000000000      -0.200000000000000       0.033333333333333
          0.083333333333333      -0.062500000000000       0.000000000000000       0.016666666666667
          0.083333333333333       0.437500000000000       0.000000000000000       0.016666666666667
          0.250000000000000      -0.062500000000000       0.000000000000000       0.016666666666667
          0.250000000000000       0.312500000000000       0.400000000000000       0.033333333333333
          0.416666666666667      -0.312500000000000      -0.400000000000000       0.033333333333333
          0.416666666666667      -0.187500000000000      -0.400000000000000       0.033333333333333
          0.416666666666667      -0.187500000000000       0.200000000000000       0.033333333333333