# CELL file written 13:13:47 (GMT+1.0) 25th April 2019 from run castep

%BLOCK lattice_cart
   ANG
       4.90933484089844        0.00000000000000        0.00000000000000    
       0.00000000000000        3.46844111131925        0.00000000000000    
       0.00000000000000        0.00000000000000        6.07288334025710    
%ENDBLOCK lattice_cart

%BLOCK cell_constraints
      1   2   3
      0   0   0
%ENDBLOCK cell_constraints

%BLOCK positions_frac
   H              0.257362963375283       0.501198142588123       0.430948957324001
   H              0.839306585653654       0.253017776398188       0.830614348433483
   H              0.949932626503592       0.558821449685055       0.232453807717344
   H              0.904359781587420       0.458390016219430       0.132996425836367
   H              0.916355490950119       0.486577689390256       0.524010282800249
   H              0.673656479076596       0.251335657676002       0.330810036223780
   H              0.242637036624717       0.498801857411877       0.930948957324001
   H              0.660693414346346       0.746982223601812       0.330614348433482
   H              0.550067373496408       0.441178550314945       0.732453807717344
   H              0.595640218412580       0.541609983780570       0.632996425836367
   H              0.583644509049881       0.513422310609744       0.024010282800249
   H              0.826343520923404       0.748664342323999       0.830810036223780
   H              0.742637036624716       0.001198142588123       0.069051042675999
   H              0.160693414346346       0.753017776398188       0.669385651566517
   H              0.050067373496409       0.058821449685055       0.267546192282656
   H              0.095640218412579       0.958390016219430       0.367003574163634
   H              0.083644509049881       0.986577689390256       0.975989717199751
   H              0.326343520923404       0.751335657676001       0.169189963776220
   H              0.757362963375284       0.998801857411877       0.569051042675999
   H              0.339306585653654       0.246982223601812       0.169385651566518
   H              0.449932626503591       0.941178550314945       0.767546192282656
   H              0.404359781587421       0.041609983780570       0.867003574163633
   H              0.416355490950119       0.013422310609744       0.475989717199751
   H              0.173656479076596       0.248664342323998       0.669189963776220
   C              0.873843134261487       0.998862407727512       0.927809695039074
   C              0.626156865738513       0.001137592272488       0.427809695039073
   C              0.126156865738513       0.498862407727512       0.572190304960926
   C              0.373843134261487       0.501137592272488       0.072190304960927
%ENDBLOCK positions_frac

FIX_COM : true

%BLOCK species_gamma
   radsectesla
   H          267522128.0    
%ENDBLOCK species_gamma

%BLOCK species_pot
   H       1|0.6|13|15|17|10(qc=8)[]
   C       2|1.4|10|12|13|20:21(qc=7)[]
%ENDBLOCK species_pot

SYMMETRY_TOL :     0.001000

%BLOCK symmetry_ops
# Symm. op. 1       E
          1.000000000000000       0.000000000000000       0.000000000000000
          0.000000000000000       1.000000000000000       0.000000000000000
          0.000000000000000       0.000000000000000       1.000000000000000
          0.000000000000000       0.000000000000000       0.000000000000000
# Symm. op. 2     2_1
         -1.000000000000000       0.000000000000000       0.000000000000000
          0.000000000000000      -1.000000000000000       0.000000000000000
          0.000000000000000       0.000000000000000       1.000000000000000
          0.500000000000000       1.000000000000000       0.500000000000000
# Symm. op. 3     2_1
         -1.000000000000000       0.000000000000000       0.000000000000000
          0.000000000000000       1.000000000000000       0.000000000000000
          0.000000000000000       0.000000000000000      -1.000000000000000
          0.000000000000000       0.500000000000000       0.500000000000000
# Symm. op. 4     2_1
          1.000000000000000       0.000000000000000       0.000000000000000
          0.000000000000000      -1.000000000000000       0.000000000000000
          0.000000000000000       0.000000000000000      -1.000000000000000
          0.500000000000000       0.500000000000000       1.000000000000000
%ENDBLOCK symmetry_ops

%BLOCK kpoint_list
         -0.416666666666667      -0.437500000000000      -0.400000000000000       0.033333333333333
         -0.416666666666667      -0.437500000000000       0.000000000000000       0.016666666666667
         -0.416666666666667      -0.062500000000000      -0.200000000000000       0.033333333333333
         -0.416666666666667      -0.062500000000000       0.000000000000000       0.016666666666667
         -0.416666666666667       0.312500000000000       0.000000000000000       0.016666666666667
         -0.416666666666667       0.312500000000000       0.200000000000000       0.033333333333333
         -0.416666666666667       0.437500000000000       0.200000000000000       0.033333333333333
         -0.250000000000000      -0.437500000000000       0.000000000000000       0.016666666666667
         -0.250000000000000       0.062500000000000       0.200000000000000       0.033333333333333
         -0.250000000000000       0.062500000000000       0.400000000000000       0.033333333333333
         -0.250000000000000       0.187500000000000      -0.400000000000000       0.033333333333333
         -0.250000000000000       0.187500000000000      -0.200000000000000       0.033333333333333
         -0.250000000000000       0.187500000000000       0.000000000000000       0.016666666666667
         -0.250000000000000       0.312500000000000      -0.200000000000000       0.033333333333333
         -0.250000000000000       0.312500000000000       0.000000000000000       0.016666666666667
         -0.250000000000000       0.437500000000000      -0.400000000000000       0.033333333333333
         -0.250000000000000       0.437500000000000      -0.200000000000000       0.033333333333333
         -0.083333333333333       0.437500000000000      -0.200000000000000       0.033333333333333
          0.083333333333333      -0.437500000000000       0.400000000000000       0.033333333333333
          0.083333333333333      -0.312500000000000       0.000000000000000       0.016666666666667
          0.083333333333333      -0.312500000000000       0.200000000000000       0.033333333333333
          0.083333333333333      -0.312500000000000       0.400000000000000       0.033333333333333
          0.083333333333333      -0.187500000000000      -0.400000000000000       0.033333333333333
          0.083333333333333      -0.187500000000000      -0.200000000000000       0.033333333333333
          0.083333333333333      -0.187500000000000       0.000000000000000       0.016666666666667
          0.083333333333333      -0.062500000000000      -0.400000000000000       0.033333333333333
          0.083333333333333      -0.062500000000000      -0.200000000000000       0.033333333333333
          0.083333333333333      -0.062500000000000       0.000000000000000       0.016666666666667
          0.083333333333333       0.437500000000000       0.000000000000000       0.016666666666667
          0.250000000000000      -0.062500000000000       0.000000000000000       0.016666666666667
          0.250000000000000       0.312500000000000       0.400000000000000       0.033333333333333
          0.416666666666667      -0.312500000000000      -0.400000000000000       0.033333333333333
          0.416666666666667      -0.187500000000000      -0.400000000000000       0.033333333333333
          0.416666666666667      -0.187500000000000       0.200000000000000       0.033333333333333
          0.416666666666667       0.062500000000000      -0.400000000000000       0.033333333333333
          0.416666666666667       0.187500000000000       0.000000000000000       0.016666666666667
%ENDBLOCK kpoint_list

%BLOCK bs_kpoint_list
         -0.416666666666667      -0.437500000000000      -0.400000000000000       0.033333333333333
         -0.416666666666667      -0.437500000000000       0.000000000000000       0.016666666666667
         -0.416666666666667      -0.062500000000000      -0.200000000000000       0.033333333333333
         -0.416666666666667      -0.062500000000000       0.000000000000000       0.016666666666667
         -0.416666666666667       0.312500000000000       0.000000000000000       0.016666666666667
         -0.416666666666667       0.312500000000000       0.200000000000000       0.033333333333333
         -0.416666666666667       0.437500000000000       0.200000000000000       0.033333333333333
         -0.250000000000000      -0.437500000000000       0.000000000000000       0.016666666666667
         -0.250000000000000       0.062500000000000       0.200000000000000       0.033333333333333
         -0.250000000000000       0.062500000000000       0.400000000000000       0.033333333333333
         -0.250000000000000       0.187500000000000      -0.400000000000000       0.033333333333333
         -0.250000000000000       0.187500000000000      -0.200000000000000       0.033333333333333
         -0.250000000000000       0.187500000000000       0.000000000000000       0.016666666666667
         -0.250000000000000       0.312500000000000      -0.200000000000000       0.033333333333333
         -0.250000000000000       0.312500000000000       0.000000000000000       0.016666666666667
         -0.250000000000000       0.437500000000000      -0.400000000000000       0.033333333333333
         -0.250000000000000       0.437500000000000      -0.200000000000000       0.033333333333333
         -0.083333333333333       0.437500000000000      -0.200000000000000       0.033333333333333
          0.083333333333333      -0.437500000000000       0.400000000000000       0.033333333333333
          0.083333333333333      -0.312500000000000       0.000000000000000       0.016666666666667
          0.083333333333333      -0.312500000000000       0.200000000000000       0.033333333333333
          0.083333333333333      -0.312500000000000       0.400000000000000       0.033333333333333
          0.083333333333333      -0.187500000000000      -0.400000000000000       0.033333333333333
          0.083333333333333      -0.187500000000000      -0.200000000000000       0.033333333333333
          0.083333333333333      -0.187500000000000       0.000000000000000       0.016666666666667
          0.083333333333333      -0.062500000000000      -0.400000000000000       0.033333333333333
          0.083333333333333      -0.062500000000000      -0.200000000000000       0.033333333333333
          0.083333333333333      -0.062500000000000       0.000000000000000       0.016666666666667
          0.083333333333333       0.437500000000000       0.000000000000000       0.016666666666667
          0.250000000000000      -0.062500000000000       0.000000000000000       0.016666666666667
          0.250000000000000       0.312500000000000       0.400000000000000       0.033333333333333
          0.416666666666667      -0.312500000000000      -0.400000000000000       0.033333333333333
          0.416666666666667      -0.187500000000000      -0.400000000000000       0.033333333333333
          0.416666666666667      -0.187500000000000       0.200000000000000       0.033333333333333
          0.416666666666667       0.062500000000000      -0.400000000000000       0.033333333333333
          0.416666666666667       0.187500000000000       0.000000000000000       0.016666666666667
%ENDBLOCK bs_kpoint_list

%BLOCK spectral_kpoint_list
         -0.416666666666667      -0.437500000000000      -0.400000000000000       0.033333333333333
         -0.416666666666667      -0.437500000000000       0.000000000000000       0.016666666666667
         -0.416666666666667      -0.062500000000000      -0.200000000000000       0.033333333333333
         -0.416666666666667      -0.062500000000000       0.000000000000000       0.016666666666667
         -0.416666666666667       0.312500000000000       0.000000000000000       0.016666666666667
         -0.416666666666667       0.312500000000000       0.200000000000000       0.033333333333333
         -0.416666666666667       0.437500000000000       0.200000000000000       0.033333333333333
         -0.250000000000000      -0.437500000000000       0.000000000000000       0.016666666666667
         -0.250000000000000       0.062500000000000       0.200000000000000       0.033333333333333
         -0.250000000000000       0.062500000000000       0.400000000000000       0.033333333333333
         -0.250000000000000       0.187500000000000      -0.400000000000000       0.033333333333333
         -0.250000000000000       0.187500000000000      -0.200000000000000       0.033333333333333
         -0.250000000000000       0.187500000000000       0.000000000000000       0.016666666666667
         -0.250000000000000       0.312500000000000      -0.200000000000000       0.033333333333333
         -0.250000000000000       0.312500000000000       0.000000000000000       0.016666666666667
         -0.250000000000000       0.437500000000000      -0.400000000000000       0.033333333333333
         -0.250000000000000       0.437500000000000      -0.200000000000000       0.033333333333333
         -0.083333333333333       0.437500000000000      -0.200000000000000       0.033333333333333
          0.083333333333333      -0.437500000000000       0.400000000000000       0.033333333333333
          0.083333333333333      -0.312500000000000       0.000000000000000       0.016666666666667
          0.083333333333333      -0.312500000000000       0.200000000000000       0.033333333333333
          0.083333333333333      -0.312500000000000       0.400000000000000       0.033333333333333
          0.083333333333333      -0.187500000000000      -0.400000000000000       0.033333333333333
          0.083333333333333      -0.187500000000000      -0.200000000000000       0.033333333333333
          0.083333333333333      -0.187500000000000       0.000000000000000       0.016666666666667
          0.083333333333333      -0.062500000000000      -0.400000000000000       0.033333333333333
          0.083333333333333      -0.062500000000000      -0.200000000000000       0.033333333333333
          0.083333333333333      -0.062500000000000       0.000000000000000       0.016666666666667
          0.083333333333333       0.437500000000000       0.000000000000000       0.016666666666667
          0.250000000000000      -0.062500000000000       0.000000000000000       0.016666666666667
          0.250000000000000       0.312500000000000       0.400000000000000       0.033333333333333
          0.416666666666667      -0.312500000000000      -0.400000000000000       0.033333333333333
          0.416666666666667      -0.187500000000000      -0.400000000000000       0.033333333333333
          0.416666666666667      -0.187500000000000       0.200000000000000       0.033333333333333
          0.416666666666667       0.062500000000000      -0.400000000000000       0.033333333333333
          0.416666666666667       0.187500000000000       0.000000000000000       0.016666666666667
%ENDBLOCK spectral_kpoint_list

%BLOCK optics_kpoint_list
         -0.416666666666667      -0.437500000000000      -0.400000000000000       0.033333333333333
         -0.416666666666667      -0.437500000000000       0.000000000000000       0.016666666666667
         -0.416666666666667      -0.062500000000000      -0.200000000000000       0.033333333333333
         -0.416666666666667      -0.062500000000000       0.000000000000000       0.016666666666667
         -0.416666666666667       0.312500000000000       0.000000000000000       0.016666666666667
         -0.416666666666667       0.312500000000000       0.200000000000000       0.033333333333333
         -0.416666666666667       0.437500000000000       0.200000000000000       0.033333333333333
         -0.250000000000000      -0.437500000000000       0.000000000000000       0.016666666666667
         -0.250000000000000       0.062500000000000       0.200000000000000       0.033333333333333
         -0.250000000000000       0.062500000000000       0.400000000000000       0.033333333333333
         -0.250000000000000       0.187500000000000      -0.400000000000000       0.033333333333333
         -0.250000000000000       0.187500000000000      -0.200000000000000       0.033333333333333
         -0.250000000000000       0.187500000000000       0.000000000000000       0.016666666666667
         -0.250000000000000       0.312500000000000      -0.200000000000000       0.033333333333333
         -0.250000000000000       0.312500000000000       0.000000000000000       0.016666666666667
         -0.250000000000000       0.437500000000000      -0.400000000000000       0.033333333333333
         -0.250000000000000       0.437500000000000      -0.200000000000000       0.033333333333333
         -0.083333333333333       0.437500000000000      -0.200000000000000       0.033333333333333
          0.083333333333333      -0.437500000000000       0.400000000000000       0.033333333333333
          0.083333333333333      -0.312500000000000       0.000000000000000       0.016666666666667
          0.083333333333333      -0.312500000000000       0.200000000000000       0.033333333333333
          0.083333333333333      -0.312500000000000       0.400000000000000       0.033333333333333
          0.083333333333333      -0.187500000000000      -0.400000000000000       0.033333333333333
          0.083333333333333      -0.187500000000000      -0.200000000000000       0.033333333333333
          0.083333333333333      -0.187500000000000       0.000000000000000       0.016666666666667
          0.083333333333333      -0.062500000000000      -0.400000000000000       0.033333333333333
          0.083333333333333      -0.062500000000000      -0.200000000000000       0.033333333333333
          0.083333333333333      -0.062500000000000       0.000000000000000       0.016666666666667
          0.083333333333333       0.437500000000000       0.000000000000000       0.016666666666667
          0.250000000000000      -0.062500000000000       0.000000000000000       0.016666666666667
          0.250000000000000       0.312500000000000       0.400000000000000       0.033333333333333
          0.416666666666667      -0.312500000000000      -0.400000000000000       0.033333333333333
          0.416666666666667      -0.187500000000000      -0.400000000000000       0.033333333333333
          0.416666666666667      -0.187500000000000       0.200000000000000       0.033333333333333
          0.416666666666667       0.062500000000000      -0.400000000000000       0.033333333333333
          0.416666666666667       0.187500000000000       0.000000000000000       0.016666666666667
%ENDBLOCK optics_kpoint_list

%BLOCK elnes_kpoint_list
         -0.416666666666667      -0.437500000000000      -0.400000000000000       0.033333333333333
         -0.416666666666667      -0.437500000000000       0.000000000000000       0.016666666666667
         -0.416666666666667      -0.062500000000000      -0.200000000000000       0.033333333333333
         -0.416666666666667      -0.062500000000000       0.000000000000000       0.016666666666667
         -0.416666666666667       0.312500000000000       0.000000000000000       0.016666666666667
         -0.416666666666667       0.312500000000000       0.200000000000000       0.033333333333333
         -0.416666666666667       0.437500000000000       0.200000000000000       0.033333333333333
         -0.250000000000000      -0.437500000000000       0.000000000000000       0.016666666666667
         -0.250000000000000       0.062500000000000       0.200000000000000       0.033333333333333
         -0.250000000000000       0.062500000000000       0.400000000000000       0.033333333333333
         -0.250000000000000       0.187500000000000      -0.400000000000000       0.033333333333333
         -0.250000000000000       0.187500000000000      -0.200000000000000       0.033333333333333
         -0.250000000000000       0.187500000000000       0.000000000000000       0.016666666666667
         -0.250000000000000       0.312500000000000      -0.200000000000000       0.033333333333333
         -0.250000000000000       0.312500000000000       0.000000000000000       0.016666666666667
         -0.250000000000000       0.437500000000000      -0.400000000000000       0.033333333333333
         -0.250000000000000       0.437500000000000      -0.200000000000000       0.033333333333333
         -0.083333333333333       0.437500000000000      -0.200000000000000       0.033333333333333
          0.083333333333333      -0.437500000000000       0.400000000000000       0.033333333333333
          0.083333333333333      -0.312500000000000       0.000000000000000       0.016666666666667
          0.083333333333333      -0.312500000000000       0.200000000000000       0.033333333333333
          0.083333333333333      -0.312500000000000       0.400000000000000       0.033333333333333
          0.083333333333333      -0.187500000000000      -0.400000000000000       0.033333333333333
          0.083333333333333      -0.187500000000000      -0.200000000000000       0.033333333333333
          0.083333333333333      -0.187500000000000       0.000000000000000       0.016666666666667
          0.083333333333333      -0.062500000000000      -0.400000000000000       0.033333333333333
          0.083333333333333      -0.062500000000000      -0.200000000000000       0.033333333333333
          0.083333333333333      -0.062500000000000       0.000000000000000       0.016666666666667
          0.083333333333333       0.437500000000000       0.000000000000000       0.016666666666667
          0.250000000000000      -0.062500000000000       0.000000000000000       0.016666666666667
          0.250000000000000       0.312500000000000       0.400000000000000       0.033333333333333
          0.416666666666667      -0.312500000000000      -0.400000000000000       0.033333333333333
          0.416666666666667      -0.187500000000000      -0.400000000000000       0.033333333333333
          0.416666666666667      -0.187500000000000       0.200000000000000       0.033333333333333
          0.416666666666667       0.062500000000000      -0.400000000000000       0.033333333333333
          0.416666666666667       0.187500000000000       0.000000000000000       0.016666666666667
%ENDBLOCK elnes_kpoint_list

%BLOCK magres_kpoint_list
         -0.416666666666667      -0.437500000000000      -0.400000000000000       0.033333333333333
         -0.416666666666667      -0.437500000000000       0.000000000000000       0.016666666666667
         -0.416666666666667      -0.062500000000000      -0.200000000000000       0.033333333333333
         -0.416666666666667      -0.062500000000000       0.000000000000000       0.016666666666667
         -0.416666666666667       0.312500000000000       0.000000000000000       0.016666666666667
         -0.416666666666667       0.312500000000000       0.200000000000000       0.033333333333333
         -0.416666666666667       0.437500000000000       0.200000000000000       0.033333333333333
         -0.250000000000000      -0.437500000000000       0.000000000000000       0.016666666666667
         -0.250000000000000       0.062500000000000       0.200000000000000       0.033333333333333
         -0.250000000000000       0.062500000000000       0.400000000000000       0.033333333333333
         -0.250000000000000       0.187500000000000      -0.400000000000000       0.033333333333333
         -0.250000000000000       0.187500000000000      -0.200000000000000       0.033333333333333
         -0.250000000000000       0.187500000000000       0.000000000000000       0.016666666666667
         -0.250000000000000       0.312500000000000      -0.200000000000000       0.033333333333333
         -0.250000000000000       0.312500000000000       0.000000000000000       0.016666666666667
         -0.250000000000000       0.437500000000000      -0.400000000000000       0.033333333333333
         -0.250000000000000       0.437500000000000      -0.200000000000000       0.033333333333333
         -0.083333333333333       0.437500000000000      -0.200000000000000       0.033333333333333
          0.083333333333333      -0.437500000000000       0.400000000000000       0.033333333333333
          0.083333333333333      -0.312500000000000       0.000000000000000       0.016666666666667
          0.083333333333333      -0.312500000000000       0.200000000000000       0.033333333333333
          0.083333333333333      -0.312500000000000       0.400000000000000       0.033333333333333
          0.083333333333333      -0.187500000000000      -0.400000000000000       0.033333333333333
          0.083333333333333      -0.187500000000000      -0.200000000000000       0.033333333333333
          0.083333333333333      -0.187500000000000       0.000000000000000       0.016666666666667
          0.083333333333333      -0.062500000000000      -0.400000000000000       0.033333333333333
          0.083333333333333      -0.062500000000000      -0.200000000000000       0.033333333333333
          0.083333333333333      -0.062500000000000       0.000000000000000       0.016666666666667
          0.083333333333333       0.437500000000000       0.000000000000000       0.016666666666667
          0.250000000000000      -0.062500000000000       0.000000000000000       0.016666666666667
          0.250000000000000       0.312500000000000       0.400000000000000       0.033333333333333
          0.416666666666667      -0.312500000000000      -0.400000000000000       0.033333333333333
          0.416666666666667      -0.187500000000000      -0.400000000000000       0.033333333333333
          0.416666666666667      -0.187500000000000       0.200000000000000       0.033333333333333
          0.416666666666667       0.062500000000000      -0.400000000000000       0.033333333333333
          0.416666666666667       0.187500000000000       0.000000000000000       0.016666666666667
%ENDBLOCK magres_kpoint_list

%BLOCK supercell_kpoint_list
          0.000000000000000       0.000000000000000       0.000000000000000       1.000000000000000
%ENDBLOCK supercell_kpoint_list

%BLOCK phonon_kpoint_list
         -0.416666666666667      -0.437500000000000      -0.400000000000000       0.033333333333333
         -0.416666666666667      -0.437500000000000       0.000000000000000       0.016666666666667
         -0.416666666666667      -0.062500000000000      -0.200000000000000       0.033333333333333
         -0.416666666666667      -0.062500000000000       0.000000000000000       0.016666666666667
         -0.416666666666667       0.312500000000000       0.000000000000000       0.016666666666667
         -0.416666666666667       0.312500000000000       0.200000000000000       0.033333333333333
         -0.416666666666667       0.437500000000000       0.200000000000000       0.033333333333333
         -0.250000000000000      -0.437500000000000       0.000000000000000       0.016666666666667
         -0.250000000000000       0.062500000000000       0.200000000000000       0.033333333333333
         -0.250000000000000       0.062500000000000       0.400000000000000       0.033333333333333
         -0.250000000000000       0.187500000000000      -0.400000000000000       0.033333333333333
         -0.250000000000000       0.187500000000000      -0.200000000000000       0.033333333333333
         -0.250000000000000       0.187500000000000       0.000000000000000       0.016666666666667
         -0.250000000000000       0.312500000000000      -0.200000000000000       0.033333333333333
         -0.250000000000000       0.312500000000000       0.000000000000000       0.016666666666667
         -0.250000000000000       0.437500000000000      -0.400000000000000       0.033333333333333
         -0.250000000000000       0.437500000000000      -0.200000000000000       0.033333333333333
         -0.083333333333333       0.437500000000000      -0.200000000000000       0.033333333333333
          0.083333333333333      -0.437500000000000       0.400000000000000       0.033333333333333
          0.083333333333333      -0.312500000000000       0.000000000000000       0.016666666666667
          0.083333333333333      -0.312500000000000       0.200000000000000       0.033333333333333
          0.083333333333333      -0.312500000000000       0.400000000000000       0.033333333333333
          0.083333333333333      -0.187500000000000      -0.400000000000000       0.033333333333333
          0.083333333333333      -0.187500000000000      -0.200000000000000       0.033333333333333
          0.083333333333333      -0.187500000000000       0.000000000000000       0.016666666666667
          0.083333333333333      -0.062500000000000      -0.400000000000000       0.033333333333333
          0.083333333333333      -0.062500000000000      -0.200000000000000       0.033333333333333
          0.083333333333333      -0.062500000000000       0.000000000000000       0.016666666666667
          0.083333333333333       0.437500000000000       0.000000000000000       0.016666666666667
          0.250000000000000      -0.062500000000000       0.000000000000000       0.016666666666667
          0.250000000000000       0.312500000000000       0.400000000000000       0.033333333333333