# CELL file written 14:12:58 (GMT+1.0) 25th July 2018 from run castep

%BLOCK lattice_cart
   ANG
       6.40199030000000        0.00000000000000      -0.962160000000000E-02
       0.00000000000000        2.94440450000000        0.00000000000000    
      -4.67275290000000        0.00000000000000        4.10045820000000    
%ENDBLOCK lattice_cart

%BLOCK cell_constraints
      1   2   3
      0   5   0
%ENDBLOCK cell_constraints

%BLOCK positions_frac
   H              0.068130000000000       0.206170000000000       0.494990000000000
   H              0.474300000000000       0.340181000000000       0.281294000000000
   H              0.307799000000000       0.348204000000000       0.405390000000000
   H              0.070010000000000       0.830292000000000       0.839588000000000
   H              0.184074000000000       0.842253000000000       0.399988000000000
   H              0.308618000000000       0.646314000000000       0.758350000000000
   H              0.931870000000000       0.706170000000000       0.005010000000000
   H              0.525700000000000       0.840181000000000       0.218706000000000
   H              0.692201000000000       0.848204000000000       0.094610000000000
   H              0.929990000000000       0.330292000000000       0.660412000000000
   H              0.815926000000000       0.342253000000000       0.100012000000000
   H              0.691382000000000       0.146314000000000       0.741650000000000
   H              0.931870000000000       0.793830000000000       0.505010000000000
   H              0.525700000000000       0.659819000000000       0.718706000000000
   H              0.692201000000000       0.651796000000000       0.594610000000000
   H              0.929990000000000       0.169708000000000       0.160412000000000
   H              0.815926000000000       0.157747000000000       0.600012000000000
   H              0.691382000000000       0.353686000000000       0.241650000000000
   H              0.068130000000000       0.293830000000000       0.994990000000000
   H              0.474300000000000       0.159819000000000       0.781294000000000
   H              0.307799000000000       0.151796000000000       0.905390000000000
   H              0.070010000000000       0.669708000000000       0.339588000000000
   H              0.184074000000000       0.657747000000000       0.899988000000000
   H              0.308618000000000       0.853686000000000       0.258349000000000
   C              0.288985000000000       0.289650000000000       0.734513000000000
   C              0.711015000000000       0.789650000000000       0.765487000000000
   C              0.711015000000000       0.710350000000000       0.265487000000000
   C              0.288985000000000       0.210350000000000       0.234513000000000
%ENDBLOCK positions_frac

FIX_COM : true

%BLOCK species_gamma
   radsectesla
   H          267522128.0    
%ENDBLOCK species_gamma

%BLOCK species_pot
   H       1|0.6|13|15|17|10(qc=8)
   C       2|1.4|10|12|13|20:21(qc=7)
%ENDBLOCK species_pot

SYMMETRY_TOL :     0.015000

%BLOCK symmetry_ops
# Symm. op. 1       E
          1.000000000000000       0.000000000000000       0.000000000000000
          0.000000000000000       1.000000000000000       0.000000000000000
         -0.000000000000000       0.000000000000000       1.000000000000000
          0.000000000000000       0.000000000000000       0.000000000000000
# Symm. op. 2       I
         -1.000000000000000       0.000000000000000      -0.000000000000000
          0.000000000000000      -1.000000000000000       0.000000000000000
          0.000000000000000       0.000000000000000      -1.000000000000000
          0.000000000000000       0.000000000000000       0.000000000000000
# Symm. op. 3     2_1
         -1.000000000000000       0.000000000000000      -0.000000000000000
          0.000000000000000       1.000000000000000       0.000000000000000
          0.000000000000000       0.000000000000000      -1.000000000000000
          0.000000000000000       0.500000000000000       0.500000000000000
# Symm. op. 4       c
          1.000000000000000       0.000000000000000       0.000000000000000
          0.000000000000000      -1.000000000000000       0.000000000000000
         -0.000000000000000       0.000000000000000       1.000000000000000
          0.000000000000000       0.500000000000000       0.500000000000000
%ENDBLOCK symmetry_ops

%BLOCK kpoint_list
         -0.416666666666667      -0.444444444444444       0.000000000000000       0.010582010582011
         -0.416666666666667      -0.444444444444444       0.142857142857143       0.010582010582011
         -0.416666666666667      -0.333333333333333      -0.428571428571429       0.010582010582011
         -0.416666666666667      -0.333333333333333      -0.142857142857143       0.010582010582011
         -0.416666666666667      -0.333333333333333       0.000000000000000       0.010582010582011
         -0.416666666666667      -0.222222222222222      -0.285714285714286       0.010582010582011
         -0.416666666666667      -0.222222222222222      -0.142857142857143       0.010582010582011
         -0.416666666666667      -0.222222222222222       0.142857142857143       0.010582010582011
         -0.416666666666667       0.000000000000000       0.000000000000000       0.005291005291005
         -0.416666666666667       0.000000000000000       0.142857142857143       0.005291005291005
         -0.416666666666667       0.000000000000000       0.285714285714286       0.005291005291005
         -0.416666666666667       0.000000000000000       0.428571428571429       0.005291005291005
         -0.416666666666667       0.111111111111111      -0.428571428571429       0.010582010582011
         -0.416666666666667       0.111111111111111      -0.142857142857143       0.010582010582011
         -0.416666666666667       0.111111111111111       0.000000000000000       0.010582010582011
         -0.416666666666667       0.111111111111111       0.142857142857143       0.010582010582011
         -0.416666666666667       0.111111111111111       0.285714285714286       0.010582010582011
         -0.416666666666667       0.111111111111111       0.428571428571429       0.010582010582011
         -0.416666666666667       0.222222222222222      -0.428571428571429       0.010582010582011
         -0.416666666666667       0.444444444444444      -0.142857142857143       0.010582010582011
         -0.250000000000000      -0.444444444444444       0.142857142857143       0.010582010582011
         -0.250000000000000      -0.222222222222222      -0.285714285714286       0.010582010582011
         -0.250000000000000       0.333333333333333      -0.428571428571429       0.010582010582011
         -0.250000000000000       0.444444444444444       0.000000000000000       0.010582010582011
         -0.083333333333333      -0.444444444444444      -0.142857142857143       0.010582010582011
         -0.083333333333333      -0.444444444444444       0.000000000000000       0.010582010582011
         -0.083333333333333      -0.333333333333333      -0.428571428571429       0.010582010582011
         -0.083333333333333      -0.333333333333333      -0.142857142857143       0.010582010582011
         -0.083333333333333      -0.333333333333333       0.000000000000000       0.010582010582011
         -0.083333333333333      -0.333333333333333       0.142857142857143       0.010582010582011
         -0.083333333333333      -0.333333333333333       0.428571428571429       0.010582010582011
         -0.083333333333333      -0.222222222222222      -0.428571428571429       0.010582010582011
         -0.083333333333333      -0.222222222222222      -0.285714285714286       0.010582010582011
         -0.083333333333333      -0.222222222222222      -0.142857142857143       0.010582010582011
         -0.083333333333333      -0.222222222222222       0.000000000000000       0.010582010582011
         -0.083333333333333      -0.222222222222222       0.142857142857143       0.010582010582011
         -0.083333333333333      -0.222222222222222       0.285714285714286       0.010582010582011
         -0.083333333333333      -0.111111111111111      -0.428571428571429       0.010582010582011
         -0.083333333333333      -0.111111111111111      -0.285714285714286       0.010582010582011
         -0.083333333333333      -0.111111111111111      -0.142857142857143       0.010582010582011
         -0.083333333333333      -0.111111111111111       0.000000000000000       0.010582010582011
         -0.083333333333333      -0.111111111111111       0.142857142857143       0.010582010582011
         -0.083333333333333      -0.111111111111111       0.285714285714286       0.010582010582011
         -0.083333333333333      -0.111111111111111       0.428571428571429       0.010582010582011
         -0.083333333333333       0.000000000000000      -0.428571428571429       0.005291005291005
         -0.083333333333333       0.000000000000000      -0.285714285714286       0.005291005291005
         -0.083333333333333       0.000000000000000      -0.142857142857143       0.005291005291005
         -0.083333333333333       0.000000000000000       0.000000000000000       0.005291005291005
         -0.083333333333333       0.000000000000000       0.142857142857143       0.005291005291005
         -0.083333333333333       0.000000000000000       0.285714285714286       0.005291005291005
         -0.083333333333333       0.000000000000000       0.428571428571429       0.005291005291005
         -0.083333333333333       0.222222222222222       0.428571428571429       0.010582010582011
         -0.083333333333333       0.333333333333333      -0.285714285714286       0.010582010582011
         -0.083333333333333       0.333333333333333       0.285714285714286       0.010582010582011
         -0.083333333333333       0.444444444444444      -0.285714285714286       0.010582010582011
         -0.083333333333333       0.444444444444444       0.142857142857143       0.010582010582011
          0.083333333333333      -0.444444444444444      -0.428571428571429       0.010582010582011
          0.083333333333333      -0.444444444444444      -0.285714285714286       0.010582010582011
          0.083333333333333       0.444444444444444       0.428571428571429       0.010582010582011
          0.250000000000000      -0.444444444444444      -0.428571428571429       0.010582010582011
          0.250000000000000      -0.444444444444444       0.142857142857143       0.010582010582011
          0.250000000000000      -0.444444444444444       0.428571428571429       0.010582010582011
          0.250000000000000      -0.333333333333333      -0.428571428571429       0.010582010582011
          0.250000000000000      -0.333333333333333      -0.285714285714286       0.010582010582011
          0.250000000000000      -0.333333333333333      -0.142857142857143       0.010582010582011
          0.250000000000000      -0.333333333333333       0.000000000000000       0.010582010582011
          0.250000000000000      -0.333333333333333       0.142857142857143       0.010582010582011
          0.250000000000000      -0.222222222222222      -0.428571428571429       0.010582010582011
          0.250000000000000      -0.222222222222222      -0.285714285714286       0.010582010582011
          0.250000000000000      -0.222222222222222      -0.142857142857143       0.010582010582011
          0.250000000000000      -0.222222222222222       0.000000000000000       0.010582010582011
          0.250000000000000      -0.222222222222222       0.142857142857143       0.010582010582011
          0.250000000000000      -0.111111111111111      -0.428571428571429       0.010582010582011
          0.250000000000000      -0.111111111111111      -0.285714285714286       0.010582010582011
          0.250000000000000      -0.111111111111111      -0.142857142857143       0.010582010582011
          0.250000000000000      -0.111111111111111       0.000000000000000       0.010582010582011
          0.250000000000000      -0.111111111111111       0.142857142857143       0.010582010582011
          0.250000000000000      -0.111111111111111       0.428571428571429       0.010582010582011
          0.250000000000000       0.000000000000000      -0.428571428571429       0.005291005291005
          0.250000000000000       0.000000000000000      -0.285714285714286       0.005291005291005
          0.250000000000000       0.000000000000000      -0.142857142857143       0.005291005291005
          0.250000000000000       0.000000000000000       0.000000000000000       0.005291005291005
          0.250000000000000       0.000000000000000       0.142857142857143       0.005291005291005
          0.250000000000000       0.000000000000000       0.285714285714286       0.005291005291005
          0.250000000000000       0.000000000000000       0.428571428571429       0.005291005291005
          0.250000000000000       0.111111111111111       0.285714285714286       0.010582010582011
          0.250000000000000       0.222222222222222       0.428571428571429       0.010582010582011
          0.250000000000000       0.333333333333333       0.285714285714286       0.010582010582011
          0.250000000000000       0.444444444444444      -0.285714285714286       0.010582010582011
          0.250000000000000       0.444444444444444       0.285714285714286       0.010582010582011
          0.416666666666667      -0.444444444444444      -0.285714285714286       0.010582010582011
          0.416666666666667      -0.333333333333333      -0.428571428571429       0.010582010582011
          0.416666666666667      -0.333333333333333      -0.285714285714286       0.010582010582011
          0.416666666666667      -0.333333333333333      -0.142857142857143       0.010582010582011
          0.416666666666667      -0.333333333333333       0.285714285714286       0.010582010582011
          0.416666666666667      -0.222222222222222      -0.428571428571429       0.010582010582011
          0.416666666666667      -0.222222222222222      -0.285714285714286       0.010582010582011
          0.416666666666667      -0.111111111111111       0.285714285714286       0.010582010582011
          0.416666666666667       0.000000000000000       0.142857142857143       0.005291005291005
          0.416666666666667       0.000000000000000       0.285714285714286       0.005291005291005
          0.416666666666667       0.000000000000000       0.428571428571429       0.005291005291005
          0.416666666666667       0.222222222222222       0.000000000000000       0.010582010582011
          0.416666666666667       0.444444444444444      -0.428571428571429       0.010582010582011
          0.416666666666667       0.444444444444444       0.285714285714286       0.010582010582011
          0.416666666666667       0.444444444444444       0.428571428571429       0.010582010582011
%ENDBLOCK kpoint_list

%BLOCK bs_kpoint_list
         -0.416666666666667      -0.444444444444444       0.000000000000000       0.010582010582011
         -0.416666666666667      -0.444444444444444       0.142857142857143       0.010582010582011
         -0.416666666666667      -0.333333333333333      -0.428571428571429       0.010582010582011
         -0.416666666666667      -0.333333333333333      -0.142857142857143       0.010582010582011
         -0.416666666666667      -0.333333333333333       0.000000000000000       0.010582010582011
         -0.416666666666667      -0.222222222222222      -0.285714285714286       0.010582010582011
         -0.416666666666667      -0.222222222222222      -0.142857142857143       0.010582010582011
         -0.416666666666667      -0.222222222222222       0.142857142857143       0.010582010582011
         -0.416666666666667       0.000000000000000       0.000000000000000       0.005291005291005
         -0.416666666666667       0.000000000000000       0.142857142857143       0.005291005291005
         -0.416666666666667       0.000000000000000       0.285714285714286       0.005291005291005
         -0.416666666666667       0.000000000000000       0.428571428571429       0.005291005291005
         -0.416666666666667       0.111111111111111      -0.428571428571429       0.010582010582011
         -0.416666666666667       0.111111111111111      -0.142857142857143       0.010582010582011
         -0.416666666666667       0.111111111111111       0.000000000000000       0.010582010582011
         -0.416666666666667       0.111111111111111       0.142857142857143       0.010582010582011
         -0.416666666666667       0.111111111111111       0.285714285714286       0.010582010582011
         -0.416666666666667       0.111111111111111       0.428571428571429       0.010582010582011
         -0.416666666666667       0.222222222222222      -0.428571428571429       0.010582010582011
         -0.416666666666667       0.444444444444444      -0.142857142857143       0.010582010582011
         -0.250000000000000      -0.444444444444444       0.142857142857143       0.010582010582011
         -0.250000000000000      -0.222222222222222      -0.285714285714286       0.010582010582011
         -0.250000000000000       0.333333333333333      -0.428571428571429       0.010582010582011
         -0.250000000000000       0.444444444444444       0.000000000000000       0.010582010582011
         -0.083333333333333      -0.444444444444444      -0.142857142857143       0.010582010582011
         -0.083333333333333      -0.444444444444444       0.000000000000000       0.010582010582011
         -0.083333333333333      -0.333333333333333      -0.428571428571429       0.010582010582011
         -0.083333333333333      -0.333333333333333      -0.142857142857143       0.010582010582011
         -0.083333333333333      -0.333333333333333       0.000000000000000       0.010582010582011
         -0.083333333333333      -0.333333333333333       0.142857142857143       0.010582010582011
         -0.083333333333333      -0.333333333333333       0.428571428571429       0.010582010582011
         -0.083333333333333      -0.222222222222222      -0.428571428571429       0.010582010582011
         -0.083333333333333      -0.222222222222222      -0.285714285714286       0.010582010582011
         -0.083333333333333      -0.222222222222222      -0.142857142857143       0.010582010582011
         -0.083333333333333      -0.222222222222222       0.000000000000000       0.010582010582011
         -0.083333333333333      -0.222222222222222       0.142857142857143       0.010582010582011
         -0.083333333333333      -0.222222222222222       0.285714285714286       0.010582010582011
         -0.083333333333333      -0.111111111111111      -0.428571428571429       0.010582010582011
         -0.083333333333333      -0.111111111111111      -0.285714285714286       0.010582010582011
         -0.083333333333333      -0.111111111111111      -0.142857142857143       0.010582010582011
         -0.083333333333333      -0.111111111111111       0.000000000000000       0.010582010582011
         -0.083333333333333      -0.111111111111111       0.142857142857143       0.010582010582011
         -0.083333333333333      -0.111111111111111       0.285714285714286       0.010582010582011
         -0.083333333333333      -0.111111111111111       0.428571428571429       0.010582010582011
         -0.083333333333333       0.000000000000000      -0.428571428571429       0.005291005291005
         -0.083333333333333       0.000000000000000      -0.285714285714286       0.005291005291005
         -0.083333333333333       0.000000000000000      -0.142857142857143       0.005291005291005
         -0.083333333333333       0.000000000000000       0.000000000000000       0.005291005291005
         -0.083333333333333       0.000000000000000       0.142857142857143       0.005291005291005
         -0.083333333333333       0.000000000000000       0.285714285714286       0.005291005291005
         -0.083333333333333       0.000000000000000       0.428571428571429       0.005291005291005
         -0.083333333333333       0.222222222222222       0.428571428571429       0.010582010582011
         -0.083333333333333       0.333333333333333      -0.285714285714286       0.010582010582011
         -0.083333333333333       0.333333333333333       0.285714285714286       0.010582010582011
         -0.083333333333333       0.444444444444444      -0.285714285714286       0.010582010582011
         -0.083333333333333       0.444444444444444       0.142857142857143       0.010582010582011
          0.083333333333333      -0.444444444444444      -0.428571428571429       0.010582010582011
          0.083333333333333      -0.444444444444444      -0.285714285714286       0.010582010582011
          0.083333333333333       0.444444444444444       0.428571428571429       0.010582010582011
          0.250000000000000      -0.444444444444444      -0.428571428571429       0.010582010582011
          0.250000000000000      -0.444444444444444       0.142857142857143       0.010582010582011
          0.250000000000000      -0.444444444444444       0.428571428571429       0.010582010582011
          0.250000000000000      -0.333333333333333      -0.428571428571429       0.010582010582011
          0.250000000000000      -0.333333333333333      -0.285714285714286       0.010582010582011
          0.250000000000000      -0.333333333333333      -0.142857142857143       0.010582010582011
          0.250000000000000      -0.333333333333333       0.000000000000000       0.010582010582011
          0.250000000000000      -0.333333333333333       0.142857142857143       0.010582010582011
          0.250000000000000      -0.222222222222222      -0.428571428571429       0.010582010582011
          0.250000000000000      -0.222222222222222      -0.285714285714286       0.010582010582011
          0.250000000000000      -0.222222222222222      -0.142857142857143       0.010582010582011
          0.250000000000000      -0.222222222222222       0.000000000000000       0.010582010582011
          0.250000000000000      -0.222222222222222       0.142857142857143       0.010582010582011
          0.250000000000000      -0.111111111111111      -0.428571428571429       0.010582010582011
          0.250000000000000      -0.111111111111111      -0.285714285714286       0.010582010582011
          0.250000000000000      -0.111111111111111      -0.142857142857143       0.010582010582011
          0.250000000000000      -0.111111111111111       0.000000000000000       0.010582010582011
          0.250000000000000      -0.111111111111111       0.142857142857143       0.010582010582011
          0.250000000000000      -0.111111111111111       0.428571428571429       0.010582010582011
          0.250000000000000       0.000000000000000      -0.428571428571429       0.005291005291005
          0.250000000000000       0.000000000000000      -0.285714285714286       0.005291005291005
          0.250000000000000       0.000000000000000      -0.142857142857143       0.005291005291005
          0.250000000000000       0.000000000000000       0.000000000000000       0.005291005291005
          0.250000000000000       0.000000000000000       0.142857142857143       0.005291005291005
          0.250000000000000       0.000000000000000       0.285714285714286       0.005291005291005
          0.250000000000000       0.000000000000000       0.428571428571429       0.005291005291005
          0.250000000000000       0.111111111111111       0.285714285714286       0.010582010582011
          0.250000000000000       0.222222222222222       0.428571428571429       0.010582010582011
          0.250000000000000       0.333333333333333       0.285714285714286       0.010582010582011
          0.250000000000000       0.444444444444444      -0.285714285714286       0.010582010582011
          0.250000000000000       0.444444444444444       0.285714285714286       0.010582010582011
          0.416666666666667      -0.444444444444444      -0.285714285714286       0.010582010582011
          0.416666666666667      -0.333333333333333      -0.428571428571429       0.010582010582011
          0.416666666666667      -0.333333333333333      -0.285714285714286       0.010582010582011
          0.416666666666667      -0.333333333333333      -0.142857142857143       0.010582010582011
          0.416666666666667      -0.333333333333333       0.285714285714286       0.010582010582011
          0.416666666666667      -0.222222222222222      -0.428571428571429       0.010582010582011
          0.416666666666667      -0.222222222222222      -0.285714285714286       0.010582010582011
          0.416666666666667      -0.111111111111111       0.285714285714286       0.010582010582011
          0.416666666666667       0.000000000000000       0.142857142857143       0.005291005291005
          0.416666666666667       0.000000000000000       0.285714285714286       0.005291005291005
          0.416666666666667       0.000000000000000       0.428571428571429       0.005291005291005
          0.416666666666667       0.222222222222222       0.000000000000000       0.010582010582011
          0.416666666666667       0.444444444444444      -0.428571428571429       0.010582010582011
          0.416666666666667       0.444444444444444       0.285714285714286       0.010582010582011
          0.416666666666667       0.444444444444444       0.428571428571429       0.010582010582011
%ENDBLOCK bs_kpoint_list

%BLOCK spectral_kpoint_list
         -0.416666666666667      -0.444444444444444       0.000000000000000       0.010582010582011
         -0.416666666666667      -0.444444444444444       0.142857142857143       0.010582010582011
         -0.416666666666667      -0.333333333333333      -0.428571428571429       0.010582010582011
         -0.416666666666667      -0.333333333333333      -0.142857142857143       0.010582010582011
         -0.416666666666667      -0.333333333333333       0.000000000000000       0.010582010582011
         -0.416666666666667      -0.222222222222222      -0.285714285714286       0.010582010582011
         -0.416666666666667      -0.222222222222222      -0.142857142857143       0.010582010582011
         -0.416666666666667      -0.222222222222222       0.142857142857143       0.010582010582011
         -0.416666666666667       0.000000000000000       0.000000000000000       0.005291005291005
         -0.416666666666667       0.000000000000000       0.142857142857143       0.005291005291005
         -0.416666666666667       0.000000000000000       0.285714285714286       0.005291005291005
         -0.416666666666667       0.000000000000000       0.428571428571429       0.005291005291005
         -0.416666666666667       0.111111111111111      -0.428571428571429       0.010582010582011
         -0.416666666666667       0.111111111111111      -0.142857142857143       0.010582010582011
         -0.416666666666667       0.111111111111111       0.000000000000000       0.010582010582011
         -0.416666666666667       0.111111111111111       0.142857142857143       0.010582010582011
         -0.416666666666667       0.111111111111111       0.285714285714286       0.010582010582011
         -0.416666666666667       0.111111111111111       0.428571428571429       0.010582010582011
         -0.416666666666667       0.222222222222222      -0.428571428571429       0.010582010582011
         -0.416666666666667       0.444444444444444      -0.142857142857143       0.010582010582011
         -0.250000000000000      -0.444444444444444       0.142857142857143       0.010582010582011
         -0.250000000000000      -0.222222222222222      -0.285714285714286       0.010582010582011
         -0.250000000000000       0.333333333333333      -0.428571428571429       0.010582010582011
         -0.250000000000000       0.444444444444444       0.000000000000000       0.010582010582011
         -0.083333333333333      -0.444444444444444      -0.142857142857143       0.010582010582011
         -0.083333333333333      -0.444444444444444       0.000000000000000       0.010582010582011
         -0.083333333333333      -0.333333333333333      -0.428571428571429       0.010582010582011
         -0.083333333333333      -0.333333333333333      -0.142857142857143       0.010582010582011
         -0.083333333333333      -0.333333333333333       0.000000000000000       0.010582010582011
         -0.083333333333333      -0.333333333333333       0.142857142857143       0.010582010582011
         -0.083333333333333      -0.333333333333333       0.428571428571429       0.010582010582011
         -0.083333333333333      -0.222222222222222      -0.428571428571429       0.010582010582011
         -0.083333333333333      -0.222222222222222      -0.285714285714286       0.010582010582011
         -0.083333333333333      -0.222222222222222      -0.142857142857143       0.010582010582011
         -0.083333333333333      -0.222222222222222       0.000000000000000       0.010582010582011
         -0.083333333333333      -0.222222222222222       0.142857142857143       0.010582010582011
         -0.083333333333333      -0.222222222222222       0.285714285714286       0.010582010582011
         -0.083333333333333      -0.111111111111111      -0.428571428571429       0.010582010582011
         -0.083333333333333      -0.111111111111111      -0.285714285714286       0.010582010582011
         -0.083333333333333      -0.111111111111111      -0.142857142857143       0.010582010582011
         -0.083333333333333      -0.111111111111111       0.000000000000000       0.010582010582011
         -0.083333333333333      -0.111111111111111       0.142857142857143       0.010582010582011
         -0.083333333333333      -0.111111111111111       0.285714285714286       0.010582010582011
         -0.083333333333333      -0.111111111111111       0.428571428571429       0.010582010582011