# CELL file written 13:24:51 (GMT+1.0) 25th April 2019 from run castep

%BLOCK lattice_cart
   ANG
       5.23034835481387        0.00000000000000        0.00000000000000    
       0.00000000000000        3.71454887995308        0.00000000000000    
       0.00000000000000        0.00000000000000        6.51270732298026    
%ENDBLOCK lattice_cart

%BLOCK cell_constraints
      1   2   3
      0   0   0
%ENDBLOCK cell_constraints

%BLOCK positions_frac
   H              0.254009173789259       0.500703579638598       0.441857742036599
   H              0.844272103706628       0.238529834552103       0.836003287611417
   H              0.946775966528392       0.562889669795179       0.225389128582908
   H              0.894705784675588       0.452792589222812       0.140858607452956
   H              0.929250280123701       0.488994885092059       0.520619551549093
   H              0.666043176918977       0.236867579311872       0.335887329193380
   H              0.245990826210741       0.499296420361402       0.941857742036598
   H              0.655727896293372       0.761470165447897       0.336003287611416
   H              0.553224033471608       0.437110330204821       0.725389128582908
   H              0.605294215324412       0.547207410777188       0.640858607452956
   H              0.570749719876299       0.511005114907940       0.020619551549093
   H              0.833956823081023       0.763132420688129       0.835887329193380
   H              0.745990826210740       0.000703579638598       0.058142257963401
   H              0.155727896293372       0.738529834552103       0.663996712388583
   H              0.053224033471609       0.062889669795179       0.274610871417092
   H              0.105294215324411       0.952792589222812       0.359141392547045
   H              0.070749719876299       0.988994885092060       0.979380448450907
   H              0.333956823081023       0.736867579311871       0.164112670806620
   H              0.754009173789260       0.999296420361402       0.558142257963402
   H              0.344272103706628       0.261470165447897       0.163996712388584
   H              0.446775966528391       0.937110330204821       0.774610871417092
   H              0.394705784675589       0.047207410777188       0.859141392547044
   H              0.429250280123701       0.011005114907940       0.479380448450907
   H              0.166043176918977       0.263132420688128       0.664112670806620
   C              0.874399461643927       0.999236993550187       0.927895547368977
   C              0.625600538356073       0.000763006449813       0.427895547368976
   C              0.125600538356073       0.499236993550187       0.572104452631023
   C              0.374399461643927       0.500763006449813       0.072104452631024
%ENDBLOCK positions_frac

FIX_COM : true

%BLOCK species_gamma
   radsectesla
   H          267522128.0    
%ENDBLOCK species_gamma

%BLOCK species_pot
   H       1|0.6|13|15|17|10(qc=8)[]
   C       2|1.4|10|12|13|20:21(qc=7)[]
%ENDBLOCK species_pot

SYMMETRY_TOL :     0.001000

%BLOCK symmetry_ops
# Symm. op. 1       E
          1.000000000000000       0.000000000000000       0.000000000000000
          0.000000000000000       1.000000000000000       0.000000000000000
          0.000000000000000       0.000000000000000       1.000000000000000
          0.000000000000000       0.000000000000000       0.000000000000000
# Symm. op. 2     2_1
         -1.000000000000000       0.000000000000000       0.000000000000000
          0.000000000000000      -1.000000000000000       0.000000000000000
          0.000000000000000       0.000000000000000       1.000000000000000
          0.500000000000000       1.000000000000000       0.500000000000000
# Symm. op. 3     2_1
         -1.000000000000000       0.000000000000000       0.000000000000000
          0.000000000000000       1.000000000000000       0.000000000000000
          0.000000000000000       0.000000000000000      -1.000000000000000
          0.000000000000000       0.500000000000000       0.500000000000000
# Symm. op. 4     2_1
          1.000000000000000       0.000000000000000       0.000000000000000
          0.000000000000000      -1.000000000000000       0.000000000000000
          0.000000000000000       0.000000000000000      -1.000000000000000
          0.500000000000000       0.500000000000000       1.000000000000000
%ENDBLOCK symmetry_ops

%BLOCK kpoint_list
         -0.416666666666667      -0.437500000000000      -0.400000000000000       0.033333333333333
         -0.416666666666667      -0.437500000000000       0.000000000000000       0.016666666666667
         -0.416666666666667      -0.062500000000000      -0.200000000000000       0.033333333333333
         -0.416666666666667      -0.062500000000000       0.000000000000000       0.016666666666667
         -0.416666666666667       0.312500000000000       0.000000000000000       0.016666666666667
         -0.416666666666667       0.312500000000000       0.200000000000000       0.033333333333333
         -0.416666666666667       0.437500000000000       0.200000000000000       0.033333333333333
         -0.250000000000000      -0.437500000000000       0.000000000000000       0.016666666666667
         -0.250000000000000       0.062500000000000       0.200000000000000       0.033333333333333
         -0.250000000000000       0.062500000000000       0.400000000000000       0.033333333333333
         -0.250000000000000       0.187500000000000      -0.400000000000000       0.033333333333333
         -0.250000000000000       0.187500000000000      -0.200000000000000       0.033333333333333
         -0.250000000000000       0.187500000000000       0.000000000000000       0.016666666666667
         -0.250000000000000       0.312500000000000      -0.200000000000000       0.033333333333333
         -0.250000000000000       0.312500000000000       0.000000000000000       0.016666666666667
         -0.250000000000000       0.437500000000000      -0.400000000000000       0.033333333333333
         -0.250000000000000       0.437500000000000      -0.200000000000000       0.033333333333333
         -0.083333333333333       0.437500000000000      -0.200000000000000       0.033333333333333
          0.083333333333333      -0.437500000000000       0.400000000000000       0.033333333333333
          0.083333333333333      -0.312500000000000       0.000000000000000       0.016666666666667
          0.083333333333333      -0.312500000000000       0.200000000000000       0.033333333333333
          0.083333333333333      -0.312500000000000       0.400000000000000       0.033333333333333
          0.083333333333333      -0.187500000000000      -0.400000000000000       0.033333333333333
          0.083333333333333      -0.187500000000000      -0.200000000000000       0.033333333333333
          0.083333333333333      -0.187500000000000       0.000000000000000       0.016666666666667
          0.083333333333333      -0.062500000000000      -0.400000000000000       0.033333333333333
          0.083333333333333      -0.062500000000000      -0.200000000000000       0.033333333333333
          0.083333333333333      -0.062500000000000       0.000000000000000       0.016666666666667
          0.083333333333333       0.437500000000000       0.000000000000000       0.016666666666667
          0.250000000000000      -0.062500000000000       0.000000000000000       0.016666666666667
          0.250000000000000       0.312500000000000       0.400000000000000       0.033333333333333
          0.416666666666667      -0.312500000000000      -0.400000000000000       0.033333333333333
          0.416666666666667      -0.187500000000000      -0.400000000000000       0.033333333333333
          0.416666666666667      -0.187500000000000       0.200000000000000       0.033333333333333
          0.416666666666667       0.062500000000000      -0.400000000000000       0.033333333333333
          0.416666666666667       0.187500000000000       0.000000000000000       0.016666666666667
%ENDBLOCK kpoint_list

%BLOCK bs_kpoint_list
         -0.416666666666667      -0.437500000000000      -0.400000000000000       0.033333333333333
         -0.416666666666667      -0.437500000000000       0.000000000000000       0.016666666666667
         -0.416666666666667      -0.062500000000000      -0.200000000000000       0.033333333333333
         -0.416666666666667      -0.062500000000000       0.000000000000000       0.016666666666667
         -0.416666666666667       0.312500000000000       0.000000000000000       0.016666666666667
         -0.416666666666667       0.312500000000000       0.200000000000000       0.033333333333333
         -0.416666666666667       0.437500000000000       0.200000000000000       0.033333333333333
         -0.250000000000000      -0.437500000000000       0.000000000000000       0.016666666666667
         -0.250000000000000       0.062500000000000       0.200000000000000       0.033333333333333
         -0.250000000000000       0.062500000000000       0.400000000000000       0.033333333333333
         -0.250000000000000       0.187500000000000      -0.400000000000000       0.033333333333333
         -0.250000000000000       0.187500000000000      -0.200000000000000       0.033333333333333
         -0.250000000000000       0.187500000000000       0.000000000000000       0.016666666666667
         -0.250000000000000       0.312500000000000      -0.200000000000000       0.033333333333333
         -0.250000000000000       0.312500000000000       0.000000000000000       0.016666666666667
         -0.250000000000000       0.437500000000000      -0.400000000000000       0.033333333333333
         -0.250000000000000       0.437500000000000      -0.200000000000000       0.033333333333333
         -0.083333333333333       0.437500000000000      -0.200000000000000       0.033333333333333
          0.083333333333333      -0.437500000000000       0.400000000000000       0.033333333333333
          0.083333333333333      -0.312500000000000       0.000000000000000       0.016666666666667
          0.083333333333333      -0.312500000000000       0.200000000000000       0.033333333333333
          0.083333333333333      -0.312500000000000       0.400000000000000       0.033333333333333
          0.083333333333333      -0.187500000000000      -0.400000000000000       0.033333333333333
          0.083333333333333      -0.187500000000000      -0.200000000000000       0.033333333333333
          0.083333333333333      -0.187500000000000       0.000000000000000       0.016666666666667
          0.083333333333333      -0.062500000000000      -0.400000000000000       0.033333333333333
          0.083333333333333      -0.062500000000000      -0.200000000000000       0.033333333333333
          0.083333333333333      -0.062500000000000       0.000000000000000       0.016666666666667
          0.083333333333333       0.437500000000000       0.000000000000000       0.016666666666667
          0.250000000000000      -0.062500000000000       0.000000000000000       0.016666666666667
          0.250000000000000       0.312500000000000       0.400000000000000       0.033333333333333
          0.416666666666667      -0.312500000000000      -0.400000000000000       0.033333333333333
          0.416666666666667      -0.187500000000000      -0.400000000000000       0.033333333333333
          0.416666666666667      -0.187500000000000       0.200000000000000       0.033333333333333
          0.416666666666667       0.062500000000000      -0.400000000000000       0.033333333333333
          0.416666666666667       0.187500000000000       0.000000000000000       0.016666666666667
%ENDBLOCK bs_kpoint_list

%BLOCK spectral_kpoint_list
         -0.416666666666667      -0.437500000000000      -0.400000000000000       0.033333333333333
         -0.416666666666667      -0.437500000000000       0.000000000000000       0.016666666666667
         -0.416666666666667      -0.062500000000000      -0.200000000000000       0.033333333333333
         -0.416666666666667      -0.062500000000000       0.000000000000000       0.016666666666667
         -0.416666666666667       0.312500000000000       0.000000000000000       0.016666666666667
         -0.416666666666667       0.312500000000000       0.200000000000000       0.033333333333333
         -0.416666666666667       0.437500000000000       0.200000000000000       0.033333333333333
         -0.250000000000000      -0.437500000000000       0.000000000000000       0.016666666666667
         -0.250000000000000       0.062500000000000       0.200000000000000       0.033333333333333
         -0.250000000000000       0.062500000000000       0.400000000000000       0.033333333333333
         -0.250000000000000       0.187500000000000      -0.400000000000000       0.033333333333333
         -0.250000000000000       0.187500000000000      -0.200000000000000       0.033333333333333
         -0.250000000000000       0.187500000000000       0.000000000000000       0.016666666666667
         -0.250000000000000       0.312500000000000      -0.200000000000000       0.033333333333333
         -0.250000000000000       0.312500000000000       0.000000000000000       0.016666666666667
         -0.250000000000000       0.437500000000000      -0.400000000000000       0.033333333333333
         -0.250000000000000       0.437500000000000      -0.200000000000000       0.033333333333333
         -0.083333333333333       0.437500000000000      -0.200000000000000       0.033333333333333
          0.083333333333333      -0.437500000000000       0.400000000000000       0.033333333333333
          0.083333333333333      -0.312500000000000       0.000000000000000       0.016666666666667
          0.083333333333333      -0.312500000000000       0.200000000000000       0.033333333333333
          0.083333333333333      -0.312500000000000       0.400000000000000       0.033333333333333
          0.083333333333333      -0.187500000000000      -0.400000000000000       0.033333333333333
          0.083333333333333      -0.187500000000000      -0.200000000000000       0.033333333333333
          0.083333333333333      -0.187500000000000       0.000000000000000       0.016666666666667
          0.083333333333333      -0.062500000000000      -0.400000000000000       0.033333333333333
          0.083333333333333      -0.062500000000000      -0.200000000000000       0.033333333333333
          0.083333333333333      -0.062500000000000       0.000000000000000       0.016666666666667
          0.083333333333333       0.437500000000000       0.000000000000000       0.016666666666667
          0.250000000000000      -0.062500000000000       0.000000000000000       0.016666666666667
          0.250000000000000       0.312500000000000       0.400000000000000       0.033333333333333
          0.416666666666667      -0.312500000000000      -0.400000000000000       0.033333333333333
          0.416666666666667      -0.187500000000000      -0.400000000000000       0.033333333333333
          0.416666666666667      -0.187500000000000       0.200000000000000       0.033333333333333
          0.416666666666667       0.062500000000000      -0.400000000000000       0.033333333333333
          0.416666666666667       0.187500000000000       0.000000000000000       0.016666666666667
%ENDBLOCK spectral_kpoint_list

%BLOCK optics_kpoint_list
         -0.416666666666667      -0.437500000000000      -0.400000000000000       0.033333333333333
         -0.416666666666667      -0.437500000000000       0.000000000000000       0.016666666666667
         -0.416666666666667      -0.062500000000000      -0.200000000000000       0.033333333333333
         -0.416666666666667      -0.062500000000000       0.000000000000000       0.016666666666667
         -0.416666666666667       0.312500000000000       0.000000000000000       0.016666666666667
         -0.416666666666667       0.312500000000000       0.200000000000000       0.033333333333333
         -0.416666666666667       0.437500000000000       0.200000000000000       0.033333333333333
         -0.250000000000000      -0.437500000000000       0.000000000000000       0.016666666666667
         -0.250000000000000       0.062500000000000       0.200000000000000       0.033333333333333
         -0.250000000000000       0.062500000000000       0.400000000000000       0.033333333333333
         -0.250000000000000       0.187500000000000      -0.400000000000000       0.033333333333333
         -0.250000000000000       0.187500000000000      -0.200000000000000       0.033333333333333
         -0.250000000000000       0.187500000000000       0.000000000000000       0.016666666666667
         -0.250000000000000       0.312500000000000      -0.200000000000000       0.033333333333333
         -0.250000000000000       0.312500000000000       0.000000000000000       0.016666666666667
         -0.250000000000000       0.437500000000000      -0.400000000000000       0.033333333333333
         -0.250000000000000       0.437500000000000      -0.200000000000000       0.033333333333333
         -0.083333333333333       0.437500000000000      -0.200000000000000       0.033333333333333
          0.083333333333333      -0.437500000000000       0.400000000000000       0.033333333333333
          0.083333333333333      -0.312500000000000       0.000000000000000       0.016666666666667
          0.083333333333333      -0.312500000000000       0.200000000000000       0.033333333333333
          0.083333333333333      -0.312500000000000       0.400000000000000       0.033333333333333
          0.083333333333333      -0.187500000000000      -0.400000000000000       0.033333333333333
          0.083333333333333      -0.187500000000000      -0.200000000000000       0.033333333333333
          0.083333333333333      -0.187500000000000       0.000000000000000       0.016666666666667
          0.083333333333333      -0.062500000000000      -0.400000000000000       0.033333333333333
          0.083333333333333      -0.062500000000000      -0.200000000000000       0.033333333333333
          0.083333333333333      -0.062500000000000       0.000000000000000       0.016666666666667
          0.083333333333333       0.437500000000000       0.000000000000000       0.016666666666667
          0.250000000000000      -0.062500000000000       0.000000000000000       0.016666666666667
          0.250000000000000       0.312500000000000       0.400000000000000       0.033333333333333
          0.416666666666667      -0.312500000000000      -0.400000000000000       0.033333333333333
          0.416666666666667      -0.187500000000000      -0.400000000000000       0.033333333333333
          0.416666666666667      -0.187500000000000       0.200000000000000       0.033333333333333
          0.416666666666667       0.062500000000000      -0.400000000000000       0.033333333333333
          0.416666666666667       0.187500000000000       0.000000000000000       0.016666666666667
%ENDBLOCK optics_kpoint_list

%BLOCK elnes_kpoint_list
         -0.416666666666667      -0.437500000000000      -0.400000000000000       0.033333333333333
         -0.416666666666667      -0.437500000000000       0.000000000000000       0.016666666666667
         -0.416666666666667      -0.062500000000000      -0.200000000000000       0.033333333333333
         -0.416666666666667      -0.062500000000000       0.000000000000000       0.016666666666667
         -0.416666666666667       0.312500000000000       0.000000000000000       0.016666666666667
         -0.416666666666667       0.312500000000000       0.200000000000000       0.033333333333333
         -0.416666666666667       0.437500000000000       0.200000000000000       0.033333333333333
         -0.250000000000000      -0.437500000000000       0.000000000000000       0.016666666666667
         -0.250000000000000       0.062500000000000       0.200000000000000       0.033333333333333
         -0.250000000000000       0.062500000000000       0.400000000000000       0.033333333333333
         -0.250000000000000       0.187500000000000      -0.400000000000000       0.033333333333333
         -0.250000000000000       0.187500000000000      -0.200000000000000       0.033333333333333
         -0.250000000000000       0.187500000000000       0.000000000000000       0.016666666666667
         -0.250000000000000       0.312500000000000      -0.200000000000000       0.033333333333333
         -0.250000000000000       0.312500000000000       0.000000000000000       0.016666666666667
         -0.250000000000000       0.437500000000000      -0.400000000000000       0.033333333333333
         -0.250000000000000       0.437500000000000      -0.200000000000000       0.033333333333333
         -0.083333333333333       0.437500000000000      -0.200000000000000       0.033333333333333
          0.083333333333333      -0.437500000000000       0.400000000000000       0.033333333333333
          0.083333333333333      -0.312500000000000       0.000000000000000       0.016666666666667
          0.083333333333333      -0.312500000000000       0.200000000000000       0.033333333333333
          0.083333333333333      -0.312500000000000       0.400000000000000       0.033333333333333
          0.083333333333333      -0.187500000000000      -0.400000000000000       0.033333333333333
          0.083333333333333      -0.187500000000000      -0.200000000000000       0.033333333333333
          0.083333333333333      -0.187500000000000       0.000000000000000       0.016666666666667
          0.083333333333333      -0.062500000000000      -0.400000000000000       0.033333333333333
          0.083333333333333      -0.062500000000000      -0.200000000000000       0.033333333333333
          0.083333333333333      -0.062500000000000       0.000000000000000       0.016666666666667
          0.083333333333333       0.437500000000000       0.000000000000000       0.016666666666667
          0.250000000000000      -0.062500000000000       0.000000000000000       0.016666666666667
          0.250000000000000       0.312500000000000       0.400000000000000       0.033333333333333
          0.416666666666667      -0.312500000000000      -0.400000000000000       0.033333333333333
          0.416666666666667      -0.187500000000000      -0.400000000000000       0.033333333333333
          0.416666666666667      -0.187500000000000       0.200000000000000       0.033333333333333
          0.416666666666667       0.062500000000000      -0.400000000000000       0.033333333333333
          0.416666666666667       0.187500000000000       0.000000000000000       0.016666666666667
%ENDBLOCK elnes_kpoint_list

%BLOCK magres_kpoint_list
         -0.416666666666667      -0.437500000000000      -0.400000000000000       0.033333333333333
         -0.416666666666667      -0.437500000000000       0.000000000000000       0.016666666666667
         -0.416666666666667      -0.062500000000000      -0.200000000000000       0.033333333333333
         -0.416666666666667      -0.062500000000000       0.000000000000000       0.016666666666667
         -0.416666666666667       0.312500000000000       0.000000000000000       0.016666666666667
         -0.416666666666667       0.312500000000000       0.200000000000000       0.033333333333333
         -0.416666666666667       0.437500000000000       0.200000000000000       0.033333333333333
         -0.250000000000000      -0.437500000000000       0.000000000000000       0.016666666666667
         -0.250000000000000       0.062500000000000       0.200000000000000       0.033333333333333
         -0.250000000000000       0.062500000000000       0.400000000000000       0.033333333333333
         -0.250000000000000       0.187500000000000      -0.400000000000000       0.033333333333333
         -0.250000000000000       0.187500000000000      -0.200000000000000       0.033333333333333
         -0.250000000000000       0.187500000000000       0.000000000000000       0.016666666666667
         -0.250000000000000       0.312500000000000      -0.200000000000000       0.033333333333333
         -0.250000000000000       0.312500000000000       0.000000000000000       0.016666666666667
         -0.250000000000000       0.437500000000000      -0.400000000000000       0.033333333333333
         -0.250000000000000       0.437500000000000      -0.200000000000000       0.033333333333333
         -0.083333333333333       0.437500000000000      -0.200000000000000       0.033333333333333
          0.083333333333333      -0.437500000000000       0.400000000000000       0.033333333333333
          0.083333333333333      -0.312500000000000       0.000000000000000       0.016666666666667
          0.083333333333333      -0.312500000000000       0.200000000000000       0.033333333333333
          0.083333333333333      -0.312500000000000       0.400000000000000       0.033333333333333
          0.083333333333333      -0.187500000000000      -0.400000000000000       0.033333333333333
          0.083333333333333      -0.187500000000000      -0.200000000000000       0.033333333333333
          0.083333333333333      -0.187500000000000       0.000000000000000       0.016666666666667
          0.083333333333333      -0.062500000000000      -0.400000000000000       0.033333333333333
          0.083333333333333      -0.062500000000000      -0.200000000000000       0.033333333333333
          0.083333333333333      -0.062500000000000       0.000000000000000       0.016666666666667
          0.083333333333333       0.437500000000000       0.000000000000000       0.016666666666667
          0.250000000000000      -0.062500000000000       0.000000000000000       0.016666666666667
          0.250000000000000       0.312500000000000       0.400000000000000       0.033333333333333
          0.416666666666667      -0.312500000000000      -0.400000000000000       0.033333333333333
          0.416666666666667      -0.187500000000000      -0.400000000000000       0.033333333333333
          0.416666666666667      -0.187500000000000       0.200000000000000       0.033333333333333
          0.416666666666667       0.062500000000000      -0.400000000000000       0.033333333333333
          0.416666666666667       0.187500000000000       0.000000000000000       0.016666666666667
%ENDBLOCK magres_kpoint_list

%BLOCK supercell_kpoint_list
          0.000000000000000       0.000000000000000       0.000000000000000       1.000000000000000
%ENDBLOCK supercell_kpoint_list

%BLOCK phonon_kpoint_list
         -0.416666666666667      -0.437500000000000      -0.400000000000000       0.033333333333333
         -0.416666666666667      -0.437500000000000       0.000000000000000       0.016666666666667
         -0.416666666666667      -0.062500000000000      -0.200000000000000       0.033333333333333
         -0.416666666666667      -0.062500000000000       0.000000000000000       0.016666666666667
         -0.416666666666667       0.312500000000000       0.000000000000000       0.016666666666667
         -0.416666666666667       0.312500000000000       0.200000000000000       0.033333333333333
         -0.416666666666667       0.437500000000000       0.200000000000000       0.033333333333333
         -0.250000000000000      -0.437500000000000       0.000000000000000       0.016666666666667
         -0.250000000000000       0.062500000000000       0.200000000000000       0.033333333333333
         -0.250000000000000       0.062500000000000       0.400000000000000       0.033333333333333
         -0.250000000000000       0.187500000000000      -0.400000000000000       0.033333333333333
         -0.250000000000000       0.187500000000000      -0.200000000000000       0.033333333333333
         -0.250000000000000       0.187500000000000       0.000000000000000       0.016666666666667
         -0.250000000000000       0.312500000000000      -0.200000000000000       0.033333333333333
         -0.250000000000000       0.312500000000000       0.000000000000000       0.016666666666667
         -0.250000000000000       0.437500000000000      -0.400000000000000       0.033333333333333
         -0.250000000000000       0.437500000000000      -0.200000000000000       0.033333333333333
         -0.083333333333333       0.437500000000000      -0.200000000000000       0.033333333333333
          0.083333333333333      -0.437500000000000       0.400000000000000       0.033333333333333
          0.083333333333333      -0.312500000000000       0.000000000000000       0.016666666666667
          0.083333333333333      -0.312500000000000       0.200000000000000       0.033333333333333
          0.083333333333333      -0.312500000000000       0.400000000000000       0.033333333333333
          0.083333333333333      -0.187500000000000      -0.400000000000000       0.033333333333333
          0.083333333333333      -0.187500000000000      -0.200000000000000       0.033333333333333
          0.083333333333333      -0.187500000000000       0.000000000000000       0.016666666666667
          0.083333333333333      -0.062500000000000      -0.400000000000000       0.033333333333333
          0.083333333333333      -0.062500000000000      -0.200000000000000       0.033333333333333
          0.083333333333333      -0.062500000000000       0.000000000000000       0.016666666666667
          0.083333333333333       0.437500000000000       0.000000000000000       0.016666666666667
          0.250000000000000      -0.062500000000000       0.000000000000000       0.016666666666667
          0.250000000000000       0.312500000000000       0.400000000000000       0.033333333333333
          0.416666666666667      -0.312500000000000      -0.400000000000000       0.033333333333333
          0.416666666666667      -0.187500000000000      -0.400000000000000       0.033333333333333
          0.416666666666667      -0.187500000000000       0.200000000000000       0.033333333333333