# CELL file written 16:18:00 (GMT-0.0) 4th March 2019 from run castep

%BLOCK lattice_cart
   ANG
       7.53374044534254        0.00000000000000      -0.737107054943091E-01
       0.00000000000000        3.47809664890657        0.00000000000000    
      -5.53868830468009        0.00000000000000        4.88775033396434    
%ENDBLOCK lattice_cart

%BLOCK cell_constraints
      1   2   3
      0   5   0
%ENDBLOCK cell_constraints

%BLOCK positions_frac
   H              0.089723405607189       0.219021066424472       0.526563144575723
   H              0.441405130030178       0.337345133359169       0.258499151808908
   H              0.315351914502940       0.337701076216812       0.385076517959914
   H              0.083970662956255       0.816083888050403       0.843808136969987
   H              0.184584237055413       0.831910707899484       0.396779833060208
   H              0.315545689243385       0.592704295804568       0.757766000910517
   H              0.910276594392814       0.719021066424472      -0.026563144575723
   H              0.558594869969819       0.837345133359168       0.241500848191094
   H              0.684648085497062       0.837701076216811       0.114923482040087
   H              0.916029337043745       0.316083888050402       0.656191863030013
   H              0.815415762944586       0.331910707899483       0.103220166939791
   H              0.684454310756614       0.092704295804570       0.742233999089483
   H              0.910276594392814       0.780978933575528       0.473436855424277
   H              0.558594869969819       0.662654866640832       0.741500848191096
   H              0.684648085497062       0.662298923783189       0.614923482040085
   H              0.916029337043745       0.183916111949597       0.156191863030014
   H              0.815415762944586       0.168089292100516       0.603220166939793
   H              0.684454310756614       0.407295704195428       0.242233999089484
   H              0.089723405607189       0.280978933575529       1.026563144575724
   H              0.441405130030178       0.162654866640831       0.758499151808904
   H              0.315351914502940       0.162298923783189       0.885076517959915
   H              0.083970662956255       0.683916111949597       0.343808136969985
   H              0.184584237055413       0.668089292100516       0.896779833060207
   H              0.315545689243385       0.907295704195432       0.257765000910516
   C              0.290239842856364       0.284028046786867       0.731856044733630
   C              0.709760157143635       0.784028046786864       0.768143955266370
   C              0.709760157143635       0.715971953213136       0.268143955266371
   C              0.290239842856364       0.215971953213134       0.231856044733629
%ENDBLOCK positions_frac

FIX_COM : true

%BLOCK species_gamma
   radsectesla
   H          267522128.0    
%ENDBLOCK species_gamma

%BLOCK species_pot
   H       1|0.6|13|15|17|10(qc=8)[]
   C       2|1.4|10|12|13|20:21(qc=7)[]
%ENDBLOCK species_pot

SYMMETRY_TOL :     0.001000

%BLOCK symmetry_ops
# Symm. op. 1       E
          1.000000000000000       0.000000000000000       0.000000000000000
          0.000000000000000       1.000000000000000       0.000000000000000
          0.000000000000000       0.000000000000000       1.000000000000000
          0.000000000000000       0.000000000000000       0.000000000000000
# Symm. op. 2       I
         -1.000000000000000       0.000000000000000       0.000000000000000
          0.000000000000000      -1.000000000000000       0.000000000000000
          0.000000000000000       0.000000000000000      -1.000000000000000
          0.000000000000000       0.000000000000000       0.000000000000000
# Symm. op. 3     2_1
         -1.000000000000000       0.000000000000000       0.000000000000000
          0.000000000000000       1.000000000000000       0.000000000000000
          0.000000000000000       0.000000000000000      -1.000000000000000
          0.000000000000000       0.500000000000000       0.500000000000000
# Symm. op. 4       c
          1.000000000000000       0.000000000000000       0.000000000000000
          0.000000000000000      -1.000000000000000       0.000000000000000
          0.000000000000000       0.000000000000000       1.000000000000000
          0.000000000000000       0.500000000000000       0.500000000000000
%ENDBLOCK symmetry_ops

%BLOCK kpoint_list
         -0.416666666666667      -0.444444444444444      -0.285714285714286       0.010582010582011
         -0.416666666666667      -0.333333333333333      -0.428571428571429       0.010582010582011
         -0.416666666666667      -0.333333333333333      -0.142857142857143       0.010582010582011
         -0.416666666666667      -0.333333333333333       0.000000000000000       0.010582010582011
         -0.416666666666667      -0.222222222222222      -0.285714285714286       0.010582010582011
         -0.416666666666667      -0.222222222222222      -0.142857142857143       0.010582010582011
         -0.416666666666667      -0.222222222222222       0.142857142857143       0.010582010582011
         -0.416666666666667       0.000000000000000       0.000000000000000       0.005291005291005
         -0.416666666666667       0.000000000000000       0.142857142857143       0.005291005291005
         -0.416666666666667       0.000000000000000       0.285714285714286       0.005291005291005
         -0.416666666666667       0.000000000000000       0.428571428571429       0.005291005291005
         -0.416666666666667       0.111111111111111      -0.428571428571429       0.010582010582011
         -0.416666666666667       0.111111111111111      -0.142857142857143       0.010582010582011
         -0.416666666666667       0.111111111111111       0.000000000000000       0.010582010582011
         -0.416666666666667       0.111111111111111       0.142857142857143       0.010582010582011
         -0.416666666666667       0.111111111111111       0.285714285714286       0.010582010582011
         -0.416666666666667       0.111111111111111       0.428571428571429       0.010582010582011
         -0.416666666666667       0.222222222222222      -0.428571428571429       0.010582010582011
         -0.416666666666667       0.444444444444444       0.000000000000000       0.010582010582011
         -0.250000000000000      -0.444444444444444       0.000000000000000       0.010582010582011
         -0.250000000000000      -0.444444444444444       0.142857142857143       0.010582010582011
         -0.250000000000000      -0.444444444444444       0.285714285714286       0.010582010582011
         -0.250000000000000      -0.444444444444444       0.428571428571429       0.010582010582011
         -0.250000000000000      -0.333333333333333       0.428571428571429       0.010582010582011
         -0.250000000000000      -0.222222222222222      -0.285714285714286       0.010582010582011
         -0.083333333333333      -0.444444444444444      -0.142857142857143       0.010582010582011
         -0.083333333333333      -0.444444444444444       0.000000000000000       0.010582010582011
         -0.083333333333333      -0.333333333333333      -0.142857142857143       0.010582010582011
         -0.083333333333333      -0.333333333333333       0.000000000000000       0.010582010582011
         -0.083333333333333      -0.333333333333333       0.142857142857143       0.010582010582011
         -0.083333333333333      -0.333333333333333       0.428571428571429       0.010582010582011
         -0.083333333333333      -0.222222222222222      -0.428571428571429       0.010582010582011
         -0.083333333333333      -0.222222222222222      -0.285714285714286       0.010582010582011
         -0.083333333333333      -0.222222222222222      -0.142857142857143       0.010582010582011
         -0.083333333333333      -0.222222222222222       0.000000000000000       0.010582010582011
         -0.083333333333333      -0.222222222222222       0.142857142857143       0.010582010582011
         -0.083333333333333      -0.222222222222222       0.285714285714286       0.010582010582011
         -0.083333333333333      -0.111111111111111      -0.428571428571429       0.010582010582011
         -0.083333333333333      -0.111111111111111      -0.285714285714286       0.010582010582011
         -0.083333333333333      -0.111111111111111      -0.142857142857143       0.010582010582011
         -0.083333333333333      -0.111111111111111       0.000000000000000       0.010582010582011
         -0.083333333333333      -0.111111111111111       0.142857142857143       0.010582010582011
         -0.083333333333333      -0.111111111111111       0.285714285714286       0.010582010582011
         -0.083333333333333      -0.111111111111111       0.428571428571429       0.010582010582011
         -0.083333333333333       0.000000000000000      -0.428571428571429       0.005291005291005
         -0.083333333333333       0.000000000000000      -0.285714285714286       0.005291005291005
         -0.083333333333333       0.000000000000000      -0.142857142857143       0.005291005291005
         -0.083333333333333       0.000000000000000       0.000000000000000       0.005291005291005
         -0.083333333333333       0.000000000000000       0.142857142857143       0.005291005291005
         -0.083333333333333       0.000000000000000       0.285714285714286       0.005291005291005
         -0.083333333333333       0.000000000000000       0.428571428571429       0.005291005291005
         -0.083333333333333       0.222222222222222       0.428571428571429       0.010582010582011
         -0.083333333333333       0.333333333333333      -0.428571428571429       0.010582010582011
         -0.083333333333333       0.333333333333333      -0.285714285714286       0.010582010582011
         -0.083333333333333       0.333333333333333       0.285714285714286       0.010582010582011
         -0.083333333333333       0.444444444444444       0.428571428571429       0.010582010582011
          0.083333333333333      -0.444444444444444      -0.285714285714286       0.010582010582011
          0.083333333333333      -0.444444444444444       0.428571428571429       0.010582010582011
          0.083333333333333       0.444444444444444      -0.142857142857143       0.010582010582011
          0.083333333333333       0.444444444444444       0.285714285714286       0.010582010582011
          0.250000000000000      -0.444444444444444       0.142857142857143       0.010582010582011
          0.250000000000000      -0.444444444444444       0.285714285714286       0.010582010582011
          0.250000000000000      -0.333333333333333      -0.285714285714286       0.010582010582011
          0.250000000000000      -0.333333333333333      -0.142857142857143       0.010582010582011
          0.250000000000000      -0.333333333333333       0.000000000000000       0.010582010582011
          0.250000000000000      -0.333333333333333       0.142857142857143       0.010582010582011
          0.250000000000000      -0.333333333333333       0.428571428571429       0.010582010582011
          0.250000000000000      -0.222222222222222      -0.428571428571429       0.010582010582011
          0.250000000000000      -0.222222222222222      -0.285714285714286       0.010582010582011
          0.250000000000000      -0.222222222222222      -0.142857142857143       0.010582010582011
          0.250000000000000      -0.222222222222222       0.000000000000000       0.010582010582011
          0.250000000000000      -0.222222222222222       0.142857142857143       0.010582010582011
          0.250000000000000      -0.111111111111111      -0.428571428571429       0.010582010582011
          0.250000000000000      -0.111111111111111      -0.285714285714286       0.010582010582011
          0.250000000000000      -0.111111111111111      -0.142857142857143       0.010582010582011
          0.250000000000000      -0.111111111111111       0.000000000000000       0.010582010582011
          0.250000000000000      -0.111111111111111       0.142857142857143       0.010582010582011
          0.250000000000000      -0.111111111111111       0.428571428571429       0.010582010582011
          0.250000000000000       0.000000000000000      -0.428571428571429       0.005291005291005
          0.250000000000000       0.000000000000000      -0.285714285714286       0.005291005291005
          0.250000000000000       0.000000000000000      -0.142857142857143       0.005291005291005
          0.250000000000000       0.000000000000000       0.000000000000000       0.005291005291005
          0.250000000000000       0.000000000000000       0.142857142857143       0.005291005291005
          0.250000000000000       0.000000000000000       0.285714285714286       0.005291005291005
          0.250000000000000       0.000000000000000       0.428571428571429       0.005291005291005
          0.250000000000000       0.111111111111111       0.285714285714286       0.010582010582011
          0.250000000000000       0.222222222222222       0.428571428571429       0.010582010582011
          0.250000000000000       0.333333333333333       0.285714285714286       0.010582010582011
          0.250000000000000       0.444444444444444       0.428571428571429       0.010582010582011
          0.416666666666667      -0.444444444444444      -0.142857142857143       0.010582010582011
          0.416666666666667      -0.444444444444444       0.142857142857143       0.010582010582011
          0.416666666666667      -0.333333333333333      -0.428571428571429       0.010582010582011
          0.416666666666667      -0.333333333333333      -0.285714285714286       0.010582010582011
          0.416666666666667      -0.333333333333333      -0.142857142857143       0.010582010582011
          0.416666666666667      -0.333333333333333       0.285714285714286       0.010582010582011
          0.416666666666667      -0.222222222222222      -0.428571428571429       0.010582010582011
          0.416666666666667      -0.222222222222222      -0.285714285714286       0.010582010582011
          0.416666666666667      -0.111111111111111       0.285714285714286       0.010582010582011
          0.416666666666667       0.000000000000000       0.142857142857143       0.005291005291005
          0.416666666666667       0.000000000000000       0.285714285714286       0.005291005291005
          0.416666666666667       0.000000000000000       0.428571428571429       0.005291005291005
          0.416666666666667       0.222222222222222       0.000000000000000       0.010582010582011
          0.416666666666667       0.444444444444444      -0.428571428571429       0.010582010582011
          0.416666666666667       0.444444444444444      -0.285714285714286       0.010582010582011
          0.416666666666667       0.444444444444444       0.428571428571429       0.010582010582011
%ENDBLOCK kpoint_list

%BLOCK bs_kpoint_list
         -0.416666666666667      -0.444444444444444      -0.285714285714286       0.010582010582011
         -0.416666666666667      -0.333333333333333      -0.428571428571429       0.010582010582011
         -0.416666666666667      -0.333333333333333      -0.142857142857143       0.010582010582011
         -0.416666666666667      -0.333333333333333       0.000000000000000       0.010582010582011
         -0.416666666666667      -0.222222222222222      -0.285714285714286       0.010582010582011
         -0.416666666666667      -0.222222222222222      -0.142857142857143       0.010582010582011
         -0.416666666666667      -0.222222222222222       0.142857142857143       0.010582010582011
         -0.416666666666667       0.000000000000000       0.000000000000000       0.005291005291005
         -0.416666666666667       0.000000000000000       0.142857142857143       0.005291005291005
         -0.416666666666667       0.000000000000000       0.285714285714286       0.005291005291005
         -0.416666666666667       0.000000000000000       0.428571428571429       0.005291005291005
         -0.416666666666667       0.111111111111111      -0.428571428571429       0.010582010582011
         -0.416666666666667       0.111111111111111      -0.142857142857143       0.010582010582011
         -0.416666666666667       0.111111111111111       0.000000000000000       0.010582010582011
         -0.416666666666667       0.111111111111111       0.142857142857143       0.010582010582011
         -0.416666666666667       0.111111111111111       0.285714285714286       0.010582010582011
         -0.416666666666667       0.111111111111111       0.428571428571429       0.010582010582011
         -0.416666666666667       0.222222222222222      -0.428571428571429       0.010582010582011
         -0.416666666666667       0.444444444444444       0.000000000000000       0.010582010582011
         -0.250000000000000      -0.444444444444444       0.000000000000000       0.010582010582011
         -0.250000000000000      -0.444444444444444       0.142857142857143       0.010582010582011
         -0.250000000000000      -0.444444444444444       0.285714285714286       0.010582010582011
         -0.250000000000000      -0.444444444444444       0.428571428571429       0.010582010582011
         -0.250000000000000      -0.333333333333333       0.428571428571429       0.010582010582011
         -0.250000000000000      -0.222222222222222      -0.285714285714286       0.010582010582011
         -0.083333333333333      -0.444444444444444      -0.142857142857143       0.010582010582011
         -0.083333333333333      -0.444444444444444       0.000000000000000       0.010582010582011
         -0.083333333333333      -0.333333333333333      -0.142857142857143       0.010582010582011
         -0.083333333333333      -0.333333333333333       0.000000000000000       0.010582010582011
         -0.083333333333333      -0.333333333333333       0.142857142857143       0.010582010582011
         -0.083333333333333      -0.333333333333333       0.428571428571429       0.010582010582011
         -0.083333333333333      -0.222222222222222      -0.428571428571429       0.010582010582011
         -0.083333333333333      -0.222222222222222      -0.285714285714286       0.010582010582011
         -0.083333333333333      -0.222222222222222      -0.142857142857143       0.010582010582011
         -0.083333333333333      -0.222222222222222       0.000000000000000       0.010582010582011
         -0.083333333333333      -0.222222222222222       0.142857142857143       0.010582010582011
         -0.083333333333333      -0.222222222222222       0.285714285714286       0.010582010582011
         -0.083333333333333      -0.111111111111111      -0.428571428571429       0.010582010582011
         -0.083333333333333      -0.111111111111111      -0.285714285714286       0.010582010582011
         -0.083333333333333      -0.111111111111111      -0.142857142857143       0.010582010582011
         -0.083333333333333      -0.111111111111111       0.000000000000000       0.010582010582011
         -0.083333333333333      -0.111111111111111       0.142857142857143       0.010582010582011
         -0.083333333333333      -0.111111111111111       0.285714285714286       0.010582010582011
         -0.083333333333333      -0.111111111111111       0.428571428571429       0.010582010582011
         -0.083333333333333       0.000000000000000      -0.428571428571429       0.005291005291005
         -0.083333333333333       0.000000000000000      -0.285714285714286       0.005291005291005
         -0.083333333333333       0.000000000000000      -0.142857142857143       0.005291005291005
         -0.083333333333333       0.000000000000000       0.000000000000000       0.005291005291005
         -0.083333333333333       0.000000000000000       0.142857142857143       0.005291005291005
         -0.083333333333333       0.000000000000000       0.285714285714286       0.005291005291005
         -0.083333333333333       0.000000000000000       0.428571428571429       0.005291005291005
         -0.083333333333333       0.222222222222222       0.428571428571429       0.010582010582011
         -0.083333333333333       0.333333333333333      -0.428571428571429       0.010582010582011
         -0.083333333333333       0.333333333333333      -0.285714285714286       0.010582010582011
         -0.083333333333333       0.333333333333333       0.285714285714286       0.010582010582011
         -0.083333333333333       0.444444444444444       0.428571428571429       0.010582010582011
          0.083333333333333      -0.444444444444444      -0.285714285714286       0.010582010582011
          0.083333333333333      -0.444444444444444       0.428571428571429       0.010582010582011
          0.083333333333333       0.444444444444444      -0.142857142857143       0.010582010582011
          0.083333333333333       0.444444444444444       0.285714285714286       0.010582010582011
          0.250000000000000      -0.444444444444444       0.142857142857143       0.010582010582011
          0.250000000000000      -0.444444444444444       0.285714285714286       0.010582010582011
          0.250000000000000      -0.333333333333333      -0.285714285714286       0.010582010582011
          0.250000000000000      -0.333333333333333      -0.142857142857143       0.010582010582011
          0.250000000000000      -0.333333333333333       0.000000000000000       0.010582010582011
          0.250000000000000      -0.333333333333333       0.142857142857143       0.010582010582011
          0.250000000000000      -0.333333333333333       0.428571428571429       0.010582010582011
          0.250000000000000      -0.222222222222222      -0.428571428571429       0.010582010582011
          0.250000000000000      -0.222222222222222      -0.285714285714286       0.010582010582011
          0.250000000000000      -0.222222222222222      -0.142857142857143       0.010582010582011
          0.250000000000000      -0.222222222222222       0.000000000000000       0.010582010582011
          0.250000000000000      -0.222222222222222       0.142857142857143       0.010582010582011
          0.250000000000000      -0.111111111111111      -0.428571428571429       0.010582010582011
          0.250000000000000      -0.111111111111111      -0.285714285714286       0.010582010582011
          0.250000000000000      -0.111111111111111      -0.142857142857143       0.010582010582011
          0.250000000000000      -0.111111111111111       0.000000000000000       0.010582010582011
          0.250000000000000      -0.111111111111111       0.142857142857143       0.010582010582011
          0.250000000000000      -0.111111111111111       0.428571428571429       0.010582010582011
          0.250000000000000       0.000000000000000      -0.428571428571429       0.005291005291005
          0.250000000000000       0.000000000000000      -0.285714285714286       0.005291005291005
          0.250000000000000       0.000000000000000      -0.142857142857143       0.005291005291005
          0.250000000000000       0.000000000000000       0.000000000000000       0.005291005291005
          0.250000000000000       0.000000000000000       0.142857142857143       0.005291005291005
          0.250000000000000       0.000000000000000       0.285714285714286       0.005291005291005
          0.250000000000000       0.000000000000000       0.428571428571429       0.005291005291005
          0.250000000000000       0.111111111111111       0.285714285714286       0.010582010582011
          0.250000000000000       0.222222222222222       0.428571428571429       0.010582010582011
          0.250000000000000       0.333333333333333       0.285714285714286       0.010582010582011
          0.250000000000000       0.444444444444444       0.428571428571429       0.010582010582011
          0.416666666666667      -0.444444444444444      -0.142857142857143       0.010582010582011
          0.416666666666667      -0.444444444444444       0.142857142857143       0.010582010582011
          0.416666666666667      -0.333333333333333      -0.428571428571429       0.010582010582011
          0.416666666666667      -0.333333333333333      -0.285714285714286       0.010582010582011
          0.416666666666667      -0.333333333333333      -0.142857142857143       0.010582010582011
          0.416666666666667      -0.333333333333333       0.285714285714286       0.010582010582011
          0.416666666666667      -0.222222222222222      -0.428571428571429       0.010582010582011
          0.416666666666667      -0.222222222222222      -0.285714285714286       0.010582010582011
          0.416666666666667      -0.111111111111111       0.285714285714286       0.010582010582011
          0.416666666666667       0.000000000000000       0.142857142857143       0.005291005291005
          0.416666666666667       0.000000000000000       0.285714285714286       0.005291005291005
          0.416666666666667       0.000000000000000       0.428571428571429       0.005291005291005
          0.416666666666667       0.222222222222222       0.000000000000000       0.010582010582011
          0.416666666666667       0.444444444444444      -0.428571428571429       0.010582010582011
          0.416666666666667       0.444444444444444      -0.285714285714286       0.010582010582011
          0.416666666666667       0.444444444444444       0.428571428571429       0.010582010582011
%ENDBLOCK bs_kpoint_list

%BLOCK spectral_kpoint_list
         -0.416666666666667      -0.444444444444444      -0.285714285714286       0.010582010582011
         -0.416666666666667      -0.333333333333333      -0.428571428571429       0.010582010582011
         -0.416666666666667      -0.333333333333333      -0.142857142857143       0.010582010582011
         -0.416666666666667      -0.333333333333333       0.000000000000000       0.010582010582011
         -0.416666666666667      -0.222222222222222      -0.285714285714286       0.010582010582011
         -0.416666666666667      -0.222222222222222      -0.142857142857143       0.010582010582011
         -0.416666666666667      -0.222222222222222       0.142857142857143       0.010582010582011
         -0.416666666666667       0.000000000000000       0.000000000000000       0.005291005291005
         -0.416666666666667       0.000000000000000       0.142857142857143       0.005291005291005
         -0.416666666666667       0.000000000000000       0.285714285714286       0.005291005291005
         -0.416666666666667       0.000000000000000       0.428571428571429       0.005291005291005
         -0.416666666666667       0.111111111111111      -0.428571428571429       0.010582010582011
         -0.416666666666667       0.111111111111111      -0.142857142857143       0.010582010582011
         -0.416666666666667       0.111111111111111       0.000000000000000       0.010582010582011
         -0.416666666666667       0.111111111111111       0.142857142857143       0.010582010582011
         -0.416666666666667       0.111111111111111       0.285714285714286       0.010582010582011
         -0.416666666666667       0.111111111111111       0.428571428571429       0.010582010582011
         -0.416666666666667       0.222222222222222      -0.428571428571429       0.010582010582011
         -0.416666666666667       0.444444444444444       0.000000000000000       0.010582010582011
         -0.250000000000000      -0.444444444444444       0.000000000000000       0.010582010582011
         -0.250000000000000      -0.444444444444444       0.142857142857143       0.010582010582011
         -0.250000000000000      -0.444444444444444       0.285714285714286       0.010582010582011
         -0.250000000000000      -0.444444444444444       0.428571428571429       0.010582010582011
         -0.250000000000000      -0.333333333333333       0.428571428571429       0.010582010582011
         -0.250000000000000      -0.222222222222222      -0.285714285714286       0.010582010582011
         -0.083333333333333      -0.444444444444444      -0.142857142857143       0.010582010582011
         -0.083333333333333      -0.444444444444444       0.000000000000000       0.010582010582011
         -0.083333333333333      -0.333333333333333      -0.142857142857143       0.010582010582011
         -0.083333333333333      -0.333333333333333       0.000000000000000       0.010582010582011
         -0.083333333333333      -0.333333333333333       0.142857142857143       0.010582010582011
         -0.083333333333333      -0.333333333333333       0.428571428571429       0.010582010582011
         -0.083333333333333      -0.222222222222222      -0.428571428571429       0.010582010582011
         -0.083333333333333      -0.222222222222222      -0.285714285714286       0.010582010582011
         -0.083333333333333      -0.222222222222222      -0.142857142857143       0.010582010582011
         -0.083333333333333      -0.222222222222222       0.000000000000000       0.010582010582011
         -0.083333333333333      -0.222222222222222       0.142857142857143       0.010582010582011
         -0.083333333333333      -0.222222222222222       0.285714285714286       0.010582010582011
         -0.083333333333333      -0.111111111111111      -0.428571428571429       0.010582010582011
         -0.083333333333333      -0.111111111111111      -0.285714285714286       0.010582010582011
         -0.083333333333333      -0.111111111111111      -0.142857142857143       0.010582010582011
         -0.083333333333333      -0.111111111111111       0.000000000000000       0.010582010582011
         -0.083333333333333      -0.111111111111111       0.142857142857143       0.010582010582011
         -0.083333333333333      -0.111111111111111       0.285714285714286       0.010582010582011
         -0.083333333333333      -0.111111111111111       0.428571428571429       0.010582010582011