# CELL file written 13:40:28 (GMT+1.0) 24th August 2018 from run castep

%BLOCK lattice_cart
   ANG
       6.76587080000000        0.00000000000000      -0.209991000000000E-01
       0.00000000000000        3.11495420000000        0.00000000000000    
      -4.94527210000000        0.00000000000000        4.34248640000000    
%ENDBLOCK lattice_cart

%BLOCK cell_constraints
      1   2   3
      0   5   0
%ENDBLOCK cell_constraints

%BLOCK positions_frac
   H              0.074709000000000       0.210941000000000       0.505622222222222
   H              0.462101000000000       0.340204000000000       0.272474000000000
   H              0.310580000000000       0.344592000000000       0.399010000000000
   H              0.074148000000000       0.825437000000000       0.840095000000000
   H              0.183862000000000       0.838595000000000       0.398937000000000
   H              0.310781000000000       0.628192000000000       0.758066000000000
   H              0.925291000000000       0.710941000000000      -0.005622222222222
   H              0.537899000000000       0.840204000000000       0.227526000000000
   H              0.689420000000000       0.844592000000000       0.100990000000000
   H              0.925852000000000       0.325437000000000       0.659905000000000
   H              0.816138000000000       0.338595000000000       0.101063000000000
   H              0.689219000000000       0.128192000000000       0.741934000000000
   H              0.925291000000000       0.789059000000000       0.494377777777778
   H              0.537899000000000       0.659796000000000       0.727526000000000
   H              0.689420000000000       0.655408000000000       0.600990000000000
   H              0.925852000000000       0.174563000000000       0.159905000000000
   H              0.816138000000000       0.161405000000000       0.601063000000000
   H              0.689219000000000       0.371808000000000       0.241934000000000
   H              0.074709000000000       0.289059000000000       1.005622222222222
   H              0.462101000000000       0.159796000000000       0.772474000000000
   H              0.310580000000000       0.155408000000000       0.899010000000000
   H              0.074148000000000       0.674563000000000       0.340095000000000
   H              0.183862000000000       0.661405000000000       0.898937000000000
   H              0.310781000000000       0.871808000000000       0.258065000000000
   C              0.289082000000000       0.287788000000000       0.733493000000000
   C              0.710918000000000       0.787788000000000       0.766507000000000
   C              0.710918000000000       0.712212000000000       0.266507000000000
   C              0.289082000000000       0.212212000000000       0.233493000000000
%ENDBLOCK positions_frac

FIX_COM : true

%BLOCK species_gamma
   radsectesla
   H          267522128.0    
%ENDBLOCK species_gamma

%BLOCK species_pot
   H       1|0.6|13|15|17|10(qc=8)
   C       2|1.4|10|12|13|20:21(qc=7)
%ENDBLOCK species_pot

SYMMETRY_TOL :     0.015000

%BLOCK symmetry_ops
# Symm. op. 1       E
          1.000000000000000       0.000000000000000      -0.000000000000000
          0.000000000000000       1.000000000000000       0.000000000000000
         -0.000000000000000       0.000000000000000       1.000000000000000
          0.000000000000000       0.000000000000000       0.000000000000000
# Symm. op. 2       I
         -1.000000000000000       0.000000000000000       0.000000000000000
          0.000000000000000      -1.000000000000000       0.000000000000000
          0.000000000000000       0.000000000000000      -1.000000000000000
          0.000000000000000       0.000000000000000       0.000000000000000
# Symm. op. 3     2_1
         -1.000000000000000       0.000000000000000       0.000000000000000
          0.000000000000000       1.000000000000000       0.000000000000000
          0.000000000000000       0.000000000000000      -1.000000000000000
          0.000000000000000       0.500000000000000       0.500000000000000
# Symm. op. 4       c
          1.000000000000000       0.000000000000000      -0.000000000000000
          0.000000000000000      -1.000000000000000       0.000000000000000
         -0.000000000000000       0.000000000000000       1.000000000000000
          0.000000000000000       0.500000000000000       0.500000000000000
%ENDBLOCK symmetry_ops

%BLOCK kpoint_list
         -0.416666666666667      -0.444444444444444      -0.416666666666667       0.012345679012346
         -0.416666666666667      -0.333333333333333      -0.250000000000000       0.012345679012346
         -0.416666666666667      -0.333333333333333      -0.083333333333333       0.012345679012346
         -0.416666666666667      -0.222222222222222       0.083333333333333       0.012345679012346
         -0.416666666666667      -0.222222222222222       0.250000000000000       0.012345679012346
         -0.416666666666667      -0.111111111111111      -0.416666666666667       0.012345679012346
         -0.416666666666667       0.111111111111111      -0.250000000000000       0.012345679012346
         -0.416666666666667       0.111111111111111      -0.083333333333333       0.012345679012346
         -0.416666666666667       0.111111111111111       0.083333333333333       0.012345679012346
         -0.416666666666667       0.111111111111111       0.250000000000000       0.012345679012346
         -0.416666666666667       0.222222222222222      -0.416666666666667       0.012345679012346
         -0.416666666666667       0.444444444444444       0.250000000000000       0.012345679012346
         -0.250000000000000      -0.444444444444444      -0.416666666666667       0.012345679012346
         -0.250000000000000      -0.444444444444444      -0.250000000000000       0.012345679012346
         -0.250000000000000      -0.444444444444444      -0.083333333333333       0.012345679012346
         -0.250000000000000      -0.444444444444444       0.250000000000000       0.012345679012346
         -0.250000000000000      -0.333333333333333      -0.416666666666667       0.012345679012346
         -0.250000000000000      -0.333333333333333       0.083333333333333       0.012345679012346
         -0.250000000000000      -0.333333333333333       0.250000000000000       0.012345679012346
         -0.250000000000000      -0.333333333333333       0.416666666666667       0.012345679012346
         -0.250000000000000      -0.222222222222222      -0.416666666666667       0.012345679012346
         -0.250000000000000      -0.222222222222222       0.083333333333333       0.012345679012346
         -0.250000000000000      -0.222222222222222       0.250000000000000       0.012345679012346
         -0.250000000000000      -0.222222222222222       0.416666666666667       0.012345679012346
         -0.250000000000000      -0.111111111111111      -0.416666666666667       0.012345679012346
         -0.250000000000000      -0.111111111111111      -0.083333333333333       0.012345679012346
         -0.250000000000000      -0.111111111111111       0.083333333333333       0.012345679012346
         -0.250000000000000      -0.111111111111111       0.250000000000000       0.012345679012346
         -0.250000000000000      -0.111111111111111       0.416666666666667       0.012345679012346
         -0.250000000000000       0.000000000000000      -0.416666666666667       0.006172839506173
         -0.250000000000000       0.000000000000000      -0.250000000000000       0.006172839506173
         -0.250000000000000       0.000000000000000      -0.083333333333333       0.006172839506173
         -0.250000000000000       0.000000000000000       0.083333333333333       0.006172839506173
         -0.250000000000000       0.000000000000000       0.250000000000000       0.006172839506173
         -0.250000000000000       0.000000000000000       0.416666666666667       0.006172839506173
         -0.250000000000000       0.111111111111111      -0.250000000000000       0.012345679012346
         -0.083333333333333      -0.444444444444444      -0.250000000000000       0.012345679012346
         -0.083333333333333      -0.444444444444444       0.083333333333333       0.012345679012346
         -0.083333333333333      -0.444444444444444       0.250000000000000       0.012345679012346
         -0.083333333333333      -0.111111111111111      -0.250000000000000       0.012345679012346
         -0.083333333333333      -0.111111111111111      -0.083333333333333       0.012345679012346
         -0.083333333333333      -0.111111111111111       0.083333333333333       0.012345679012346
         -0.083333333333333      -0.111111111111111       0.250000000000000       0.012345679012346
         -0.083333333333333      -0.111111111111111       0.416666666666667       0.012345679012346
         -0.083333333333333       0.000000000000000      -0.416666666666667       0.006172839506173
         -0.083333333333333       0.000000000000000      -0.250000000000000       0.006172839506173
         -0.083333333333333       0.000000000000000      -0.083333333333333       0.006172839506173
         -0.083333333333333       0.000000000000000       0.083333333333333       0.006172839506173
         -0.083333333333333       0.000000000000000       0.250000000000000       0.006172839506173
         -0.083333333333333       0.000000000000000       0.416666666666667       0.006172839506173
         -0.083333333333333       0.111111111111111      -0.416666666666667       0.012345679012346
         -0.083333333333333       0.222222222222222      -0.250000000000000       0.012345679012346
         -0.083333333333333       0.222222222222222      -0.083333333333333       0.012345679012346
         -0.083333333333333       0.222222222222222       0.083333333333333       0.012345679012346
         -0.083333333333333       0.222222222222222       0.250000000000000       0.012345679012346
         -0.083333333333333       0.333333333333333      -0.250000000000000       0.012345679012346
         -0.083333333333333       0.333333333333333       0.250000000000000       0.012345679012346
         -0.083333333333333       0.333333333333333       0.416666666666667       0.012345679012346
          0.083333333333333      -0.444444444444444      -0.416666666666667       0.012345679012346
          0.083333333333333      -0.444444444444444       0.083333333333333       0.012345679012346
          0.083333333333333      -0.333333333333333      -0.083333333333333       0.012345679012346
          0.083333333333333      -0.333333333333333       0.083333333333333       0.012345679012346
          0.083333333333333      -0.333333333333333       0.416666666666667       0.012345679012346
          0.083333333333333      -0.222222222222222      -0.416666666666667       0.012345679012346
          0.083333333333333       0.222222222222222       0.416666666666667       0.012345679012346
          0.083333333333333       0.444444444444444       0.416666666666667       0.012345679012346
          0.250000000000000      -0.444444444444444      -0.083333333333333       0.012345679012346
          0.250000000000000      -0.333333333333333       0.250000000000000       0.012345679012346
          0.250000000000000       0.222222222222222       0.083333333333333       0.012345679012346
          0.250000000000000       0.222222222222222       0.250000000000000       0.012345679012346
          0.250000000000000       0.333333333333333       0.083333333333333       0.012345679012346
          0.250000000000000       0.444444444444444      -0.416666666666667       0.012345679012346
          0.416666666666667      -0.444444444444444      -0.416666666666667       0.012345679012346
          0.416666666666667      -0.333333333333333      -0.416666666666667       0.012345679012346
          0.416666666666667      -0.333333333333333      -0.250000000000000       0.012345679012346
          0.416666666666667      -0.333333333333333       0.416666666666667       0.012345679012346
          0.416666666666667      -0.222222222222222      -0.416666666666667       0.012345679012346
          0.416666666666667      -0.222222222222222       0.083333333333333       0.012345679012346
          0.416666666666667      -0.222222222222222       0.250000000000000       0.012345679012346
          0.416666666666667      -0.111111111111111      -0.416666666666667       0.012345679012346
          0.416666666666667       0.000000000000000      -0.416666666666667       0.006172839506173
          0.416666666666667       0.000000000000000      -0.250000000000000       0.006172839506173
          0.416666666666667       0.000000000000000      -0.083333333333333       0.006172839506173
          0.416666666666667       0.000000000000000       0.083333333333333       0.006172839506173
          0.416666666666667       0.000000000000000       0.250000000000000       0.006172839506173
          0.416666666666667       0.000000000000000       0.416666666666667       0.006172839506173
          0.416666666666667       0.333333333333333      -0.083333333333333       0.012345679012346
          0.416666666666667       0.444444444444444      -0.083333333333333       0.012345679012346
          0.416666666666667       0.444444444444444       0.083333333333333       0.012345679012346
          0.416666666666667       0.444444444444444       0.250000000000000       0.012345679012346
%ENDBLOCK kpoint_list

%BLOCK bs_kpoint_list
         -0.416666666666667      -0.444444444444444      -0.416666666666667       0.012345679012346
         -0.416666666666667      -0.333333333333333      -0.250000000000000       0.012345679012346
         -0.416666666666667      -0.333333333333333      -0.083333333333333       0.012345679012346
         -0.416666666666667      -0.222222222222222       0.083333333333333       0.012345679012346
         -0.416666666666667      -0.222222222222222       0.250000000000000       0.012345679012346
         -0.416666666666667      -0.111111111111111      -0.416666666666667       0.012345679012346
         -0.416666666666667       0.111111111111111      -0.250000000000000       0.012345679012346
         -0.416666666666667       0.111111111111111      -0.083333333333333       0.012345679012346
         -0.416666666666667       0.111111111111111       0.083333333333333       0.012345679012346
         -0.416666666666667       0.111111111111111       0.250000000000000       0.012345679012346
         -0.416666666666667       0.222222222222222      -0.416666666666667       0.012345679012346
         -0.416666666666667       0.444444444444444       0.250000000000000       0.012345679012346
         -0.250000000000000      -0.444444444444444      -0.416666666666667       0.012345679012346
         -0.250000000000000      -0.444444444444444      -0.250000000000000       0.012345679012346
         -0.250000000000000      -0.444444444444444      -0.083333333333333       0.012345679012346
         -0.250000000000000      -0.444444444444444       0.250000000000000       0.012345679012346
         -0.250000000000000      -0.333333333333333      -0.416666666666667       0.012345679012346
         -0.250000000000000      -0.333333333333333       0.083333333333333       0.012345679012346
         -0.250000000000000      -0.333333333333333       0.250000000000000       0.012345679012346
         -0.250000000000000      -0.333333333333333       0.416666666666667       0.012345679012346
         -0.250000000000000      -0.222222222222222      -0.416666666666667       0.012345679012346
         -0.250000000000000      -0.222222222222222       0.083333333333333       0.012345679012346
         -0.250000000000000      -0.222222222222222       0.250000000000000       0.012345679012346
         -0.250000000000000      -0.222222222222222       0.416666666666667       0.012345679012346
         -0.250000000000000      -0.111111111111111      -0.416666666666667       0.012345679012346
         -0.250000000000000      -0.111111111111111      -0.083333333333333       0.012345679012346
         -0.250000000000000      -0.111111111111111       0.083333333333333       0.012345679012346
         -0.250000000000000      -0.111111111111111       0.250000000000000       0.012345679012346
         -0.250000000000000      -0.111111111111111       0.416666666666667       0.012345679012346
         -0.250000000000000       0.000000000000000      -0.416666666666667       0.006172839506173
         -0.250000000000000       0.000000000000000      -0.250000000000000       0.006172839506173
         -0.250000000000000       0.000000000000000      -0.083333333333333       0.006172839506173
         -0.250000000000000       0.000000000000000       0.083333333333333       0.006172839506173
         -0.250000000000000       0.000000000000000       0.250000000000000       0.006172839506173
         -0.250000000000000       0.000000000000000       0.416666666666667       0.006172839506173
         -0.250000000000000       0.111111111111111      -0.250000000000000       0.012345679012346
         -0.083333333333333      -0.444444444444444      -0.250000000000000       0.012345679012346
         -0.083333333333333      -0.444444444444444       0.083333333333333       0.012345679012346
         -0.083333333333333      -0.444444444444444       0.250000000000000       0.012345679012346
         -0.083333333333333      -0.111111111111111      -0.250000000000000       0.012345679012346
         -0.083333333333333      -0.111111111111111      -0.083333333333333       0.012345679012346
         -0.083333333333333      -0.111111111111111       0.083333333333333       0.012345679012346
         -0.083333333333333      -0.111111111111111       0.250000000000000       0.012345679012346
         -0.083333333333333      -0.111111111111111       0.416666666666667       0.012345679012346
         -0.083333333333333       0.000000000000000      -0.416666666666667       0.006172839506173
         -0.083333333333333       0.000000000000000      -0.250000000000000       0.006172839506173
         -0.083333333333333       0.000000000000000      -0.083333333333333       0.006172839506173
         -0.083333333333333       0.000000000000000       0.083333333333333       0.006172839506173
         -0.083333333333333       0.000000000000000       0.250000000000000       0.006172839506173
         -0.083333333333333       0.000000000000000       0.416666666666667       0.006172839506173
         -0.083333333333333       0.111111111111111      -0.416666666666667       0.012345679012346
         -0.083333333333333       0.222222222222222      -0.250000000000000       0.012345679012346
         -0.083333333333333       0.222222222222222      -0.083333333333333       0.012345679012346
         -0.083333333333333       0.222222222222222       0.083333333333333       0.012345679012346
         -0.083333333333333       0.222222222222222       0.250000000000000       0.012345679012346
         -0.083333333333333       0.333333333333333      -0.250000000000000       0.012345679012346
         -0.083333333333333       0.333333333333333       0.250000000000000       0.012345679012346
         -0.083333333333333       0.333333333333333       0.416666666666667       0.012345679012346
          0.083333333333333      -0.444444444444444      -0.416666666666667       0.012345679012346
          0.083333333333333      -0.444444444444444       0.083333333333333       0.012345679012346
          0.083333333333333      -0.333333333333333      -0.083333333333333       0.012345679012346
          0.083333333333333      -0.333333333333333       0.083333333333333       0.012345679012346
          0.083333333333333      -0.333333333333333       0.416666666666667       0.012345679012346
          0.083333333333333      -0.222222222222222      -0.416666666666667       0.012345679012346
          0.083333333333333       0.222222222222222       0.416666666666667       0.012345679012346
          0.083333333333333       0.444444444444444       0.416666666666667       0.012345679012346
          0.250000000000000      -0.444444444444444      -0.083333333333333       0.012345679012346
          0.250000000000000      -0.333333333333333       0.250000000000000       0.012345679012346
          0.250000000000000       0.222222222222222       0.083333333333333       0.012345679012346
          0.250000000000000       0.222222222222222       0.250000000000000       0.012345679012346
          0.250000000000000       0.333333333333333       0.083333333333333       0.012345679012346
          0.250000000000000       0.444444444444444      -0.416666666666667       0.012345679012346
          0.416666666666667      -0.444444444444444      -0.416666666666667       0.012345679012346
          0.416666666666667      -0.333333333333333      -0.416666666666667       0.012345679012346
          0.416666666666667      -0.333333333333333      -0.250000000000000       0.012345679012346
          0.416666666666667      -0.333333333333333       0.416666666666667       0.012345679012346
          0.416666666666667      -0.222222222222222      -0.416666666666667       0.012345679012346
          0.416666666666667      -0.222222222222222       0.083333333333333       0.012345679012346
          0.416666666666667      -0.222222222222222       0.250000000000000       0.012345679012346
          0.416666666666667      -0.111111111111111      -0.416666666666667       0.012345679012346
          0.416666666666667       0.000000000000000      -0.416666666666667       0.006172839506173
          0.416666666666667       0.000000000000000      -0.250000000000000       0.006172839506173
          0.416666666666667       0.000000000000000      -0.083333333333333       0.006172839506173
          0.416666666666667       0.000000000000000       0.083333333333333       0.006172839506173
          0.416666666666667       0.000000000000000       0.250000000000000       0.006172839506173
          0.416666666666667       0.000000000000000       0.416666666666667       0.006172839506173
          0.416666666666667       0.333333333333333      -0.083333333333333       0.012345679012346
          0.416666666666667       0.444444444444444      -0.083333333333333       0.012345679012346
          0.416666666666667       0.444444444444444       0.083333333333333       0.012345679012346
          0.416666666666667       0.444444444444444       0.250000000000000       0.012345679012346
%ENDBLOCK bs_kpoint_list

%BLOCK spectral_kpoint_list
         -0.416666666666667      -0.444444444444444      -0.416666666666667       0.012345679012346
         -0.416666666666667      -0.333333333333333      -0.250000000000000       0.012345679012346
         -0.416666666666667      -0.333333333333333      -0.083333333333333       0.012345679012346
         -0.416666666666667      -0.222222222222222       0.083333333333333       0.012345679012346
         -0.416666666666667      -0.222222222222222       0.250000000000000       0.012345679012346
         -0.416666666666667      -0.111111111111111      -0.416666666666667       0.012345679012346
         -0.416666666666667       0.111111111111111      -0.250000000000000       0.012345679012346
         -0.416666666666667       0.111111111111111      -0.083333333333333       0.012345679012346
         -0.416666666666667       0.111111111111111       0.083333333333333       0.012345679012346
         -0.416666666666667       0.111111111111111       0.250000000000000       0.012345679012346
         -0.416666666666667       0.222222222222222      -0.416666666666667       0.012345679012346
         -0.416666666666667       0.444444444444444       0.250000000000000       0.012345679012346
         -0.250000000000000      -0.444444444444444      -0.416666666666667       0.012345679012346
         -0.250000000000000      -0.444444444444444      -0.250000000000000       0.012345679012346
         -0.250000000000000      -0.444444444444444      -0.083333333333333       0.012345679012346
         -0.250000000000000      -0.444444444444444       0.250000000000000       0.012345679012346
         -0.250000000000000      -0.333333333333333      -0.416666666666667       0.012345679012346
         -0.250000000000000      -0.333333333333333       0.083333333333333       0.012345679012346
         -0.250000000000000      -0.333333333333333       0.250000000000000       0.012345679012346
         -0.250000000000000      -0.333333333333333       0.416666666666667       0.012345679012346
         -0.250000000000000      -0.222222222222222      -0.416666666666667       0.012345679012346
         -0.250000000000000      -0.222222222222222       0.083333333333333       0.012345679012346
         -0.250000000000000      -0.222222222222222       0.250000000000000       0.012345679012346
         -0.250000000000000      -0.222222222222222       0.416666666666667       0.012345679012346
         -0.250000000000000      -0.111111111111111      -0.416666666666667       0.012345679012346
         -0.250000000000000      -0.111111111111111      -0.083333333333333       0.012345679012346
         -0.250000000000000      -0.111111111111111       0.083333333333333       0.012345679012346
         -0.250000000000000      -0.111111111111111       0.250000000000000       0.012345679012346
         -0.250000000000000      -0.111111111111111       0.416666666666667       0.012345679012346
         -0.250000000000000       0.000000000000000      -0.416666666666667       0.006172839506173
         -0.250000000000000       0.000000000000000      -0.250000000000000       0.006172839506173
         -0.250000000000000       0.000000000000000      -0.083333333333333       0.006172839506173
         -0.250000000000000       0.000000000000000       0.083333333333333       0.006172839506173
         -0.250000000000000       0.000000000000000       0.250000000000000       0.006172839506173
         -0.250000000000000       0.000000000000000       0.416666666666667       0.006172839506173
         -0.250000000000000       0.111111111111111      -0.250000000000000       0.012345679012346
         -0.083333333333333      -0.444444444444444      -0.250000000000000       0.012345679012346
         -0.083333333333333      -0.444444444444444       0.083333333333333       0.012345679012346
         -0.083333333333333      -0.444444444444444       0.250000000000000       0.012345679012346
         -0.083333333333333      -0.111111111111111      -0.250000000000000       0.012345679012346
         -0.083333333333333      -0.111111111111111      -0.083333333333333       0.012345679012346
         -0.083333333333333      -0.111111111111111       0.083333333333333       0.012345679012346
         -0.083333333333333      -0.111111111111111       0.250000000000000       0.012345679012346
         -0.083333333333333      -0.111111111111111       0.416666666666667       0.012345679012346
         -0.083333333333333       0.000000000000000      -0.416666666666667       0.006172839506173
         -0.083333333333333       0.000000000000000      -0.250000000000000       0.006172839506173
         -0.083333333333333       0.000000000000000      -0.083333333333333       0.006172839506173
         -0.083333333333333       0.000000000000000       0.083333333333333       0.006172839506173
         -0.083333333333333       0.000000000000000       0.250000000000000       0.006172839506173
         -0.083333333333333       0.000000000000000       0.416666666666667       0.006172839506173
         -0.083333333333333       0.111111111111111      -0.416666666666667       0.012345679012346
         -0.083333333333333       0.222222222222222      -0.250000000000000       0.012345679012346
         -0.083333333333333       0.222222222222222      -0.083333333333333       0.012345679012346
         -0.083333333333333       0.222222222222222       0.083333333333333       0.012345679012346
         -0.083333333333333       0.222222222222222       0.250000000000000       0.012345679012346
         -0.083333333333333       0.333333333333333      -0.250000000000000       0.012345679012346
         -0.083333333333333       0.333333333333333       0.250000000000000       0.012345679012346
         -0.083333333333333       0.333333333333333       0.416666666666667       0.012345679012346
          0.083333333333333      -0.444444444444444      -0.416666666666667       0.012345679012346
          0.083333333333333      -0.444444444444444       0.083333333333333       0.012345679012346
          0.083333333333333      -0.333333333333333      -0.083333333333333       0.012345679012346
          0.083333333333333      -0.333333333333333       0.083333333333333       0.012345679012346
          0.083333333333333      -0.333333333333333       0.416666666666667       0.012345679012346
          0.083333333333333      -0.222222222222222      -0.416666666666667       0.012345679012346
          0.083333333333333       0.222222222222222       0.416666666666667       0.012345679012346
          0.083333333333333       0.444444444444444       0.416666666666667       0.012345679012346
          0.250000000000000      -0.444444444444444      -0.083333333333333       0.012345679012346
          0.250000000000000      -0.333333333333333       0.250000000000000       0.012345679012346
          0.250000000000000       0.222222222222222       0.083333333333333       0.012345679012346
          0.250000000000000       0.222222222222222       0.250000000000000       0.012345679012346
          0.250000000000000       0.333333333333333       0.083333333333333       0.012345679012346
          0.250000000000000       0.444444444444444      -0.416666666666667       0.012345679012346
          0.416666666666667      -0.444444444444444      -0.416666666666667       0.012345679012346
          0.416666666666667      -0.333333333333333      -0.416666666666667       0.012345679012346