# CELL file written 15:01:38 (GMT+1.0) 23rd August 2018 from run castep

%BLOCK lattice_cart
   ANG
       2.85052150000000      -0.253520000000000E-02  -0.673200000000000E-03
      -1.36816930000000        3.86355060000000      -0.421680000000000E-02
      -1.39576750000000       -1.68119840000000        3.50110900000000    
%ENDBLOCK lattice_cart

%BLOCK positions_frac
   H              0.739033333333333       0.189552000000000       0.660107000000000
   H              0.361796000000000       0.738365000000000       0.688842000000000
   H              0.637923000000000       0.508836000000000       0.058355000000000
   H              0.253986000000000       0.766594000000000       0.157086000000000
   H              0.638204000000000       0.261635000000000       0.311158000000000
   H              0.260966666666667       0.810448000000000       0.339893000000000
   H              0.746014000000000       0.233406000000000       0.842914000000000
   H              0.191435000000000       0.067880000000000       0.897376000000000
   H              0.769088888888889       0.762508000000000       0.430002000000000
   H              0.808565000000000       0.932120000000000       0.102624000000000
   H              0.230911111111111       0.237492000000000       0.569998000000000
   H              0.788771000000000       0.587804000000000       0.759984000000000
   H              0.211229000000000       0.412196000000000       0.240016000000000
   H              0.362077000000000       0.491164000000000       0.941645000000000
   C              0.970639000000000       0.209928000000000       0.304383000000000
   C              0.029361000000000       0.790072000000000       0.695617000000000
%ENDBLOCK positions_frac

FIX_COM : true

%BLOCK species_gamma
   radsectesla
   H          267522128.0    
%ENDBLOCK species_gamma

%BLOCK species_pot
   H       1|0.6|13|15|17|10(qc=8)
   C       2|1.4|10|12|13|20:21(qc=7)
%ENDBLOCK species_pot

SYMMETRY_TOL :     0.015000

%BLOCK symmetry_ops
# Symm. op. 1       E
          1.000000000000000       0.000000000000000      -0.000000000000000
         -0.000000000000000       1.000000000000000       0.000000000000000
          0.000000000000000       0.000000000000000       1.000000000000000
          0.000000000000000       0.000000000000000       0.000000000000000
# Symm. op. 2       I
         -1.000000000000000      -0.000000000000000       0.000000000000000
          0.000000000000000      -1.000000000000000      -0.000000000000000
         -0.000000000000000      -0.000000000000000      -1.000000000000000
          0.000000000000000       0.000000000000000       0.000000000000000
%ENDBLOCK symmetry_ops

%BLOCK kpoint_list
         -0.454545454545455      -0.437500000000000      -0.437500000000000       0.002840909090909
         -0.454545454545455      -0.437500000000000       0.187500000000000       0.002840909090909
         -0.454545454545455      -0.437500000000000       0.312500000000000       0.002840909090909
         -0.454545454545455      -0.312500000000000      -0.187500000000000       0.002840909090909
         -0.454545454545455      -0.312500000000000      -0.062500000000000       0.002840909090909
         -0.454545454545455      -0.312500000000000       0.312500000000000       0.002840909090909
         -0.454545454545455      -0.187500000000000      -0.312500000000000       0.002840909090909
         -0.454545454545455      -0.187500000000000      -0.187500000000000       0.002840909090909
         -0.454545454545455      -0.187500000000000       0.062500000000000       0.002840909090909
         -0.454545454545455      -0.187500000000000       0.187500000000000       0.002840909090909
         -0.454545454545455      -0.187500000000000       0.437500000000000       0.002840909090909
         -0.454545454545455      -0.062500000000000      -0.312500000000000       0.002840909090909
         -0.454545454545455      -0.062500000000000      -0.187500000000000       0.002840909090909
         -0.454545454545455      -0.062500000000000       0.062500000000000       0.002840909090909
         -0.454545454545455      -0.062500000000000       0.437500000000000       0.002840909090909
         -0.454545454545455       0.062500000000000      -0.437500000000000       0.002840909090909
         -0.454545454545455       0.062500000000000       0.062500000000000       0.002840909090909
         -0.454545454545455       0.062500000000000       0.187500000000000       0.002840909090909
         -0.454545454545455       0.062500000000000       0.312500000000000       0.002840909090909
         -0.454545454545455       0.187500000000000      -0.312500000000000       0.002840909090909
         -0.454545454545455       0.187500000000000       0.062500000000000       0.002840909090909
         -0.454545454545455       0.187500000000000       0.187500000000000       0.002840909090909
         -0.454545454545455       0.187500000000000       0.312500000000000       0.002840909090909
         -0.454545454545455       0.187500000000000       0.437500000000000       0.002840909090909
         -0.454545454545455       0.312500000000000      -0.187500000000000       0.002840909090909
         -0.454545454545455       0.312500000000000      -0.062500000000000       0.002840909090909
         -0.454545454545455       0.437500000000000      -0.312500000000000       0.002840909090909
         -0.454545454545455       0.437500000000000      -0.187500000000000       0.002840909090909
         -0.454545454545455       0.437500000000000       0.187500000000000       0.002840909090909
         -0.454545454545455       0.437500000000000       0.312500000000000       0.002840909090909
         -0.454545454545455       0.437500000000000       0.437500000000000       0.002840909090909
         -0.363636363636364      -0.437500000000000      -0.437500000000000       0.002840909090909
         -0.363636363636364      -0.437500000000000       0.062500000000000       0.002840909090909
         -0.363636363636364      -0.437500000000000       0.187500000000000       0.002840909090909
         -0.363636363636364      -0.437500000000000       0.437500000000000       0.002840909090909
         -0.363636363636364      -0.312500000000000      -0.437500000000000       0.002840909090909
         -0.363636363636364      -0.312500000000000      -0.312500000000000       0.002840909090909
         -0.363636363636364      -0.312500000000000      -0.062500000000000       0.002840909090909
         -0.363636363636364      -0.312500000000000       0.062500000000000       0.002840909090909
         -0.363636363636364      -0.312500000000000       0.437500000000000       0.002840909090909
         -0.363636363636364      -0.187500000000000      -0.437500000000000       0.002840909090909
         -0.363636363636364      -0.187500000000000      -0.312500000000000       0.002840909090909
         -0.363636363636364      -0.187500000000000      -0.187500000000000       0.002840909090909
         -0.363636363636364      -0.187500000000000       0.062500000000000       0.002840909090909
         -0.363636363636364      -0.187500000000000       0.187500000000000       0.002840909090909
         -0.363636363636364      -0.062500000000000      -0.437500000000000       0.002840909090909
         -0.363636363636364      -0.062500000000000       0.187500000000000       0.002840909090909
         -0.363636363636364       0.062500000000000      -0.437500000000000       0.002840909090909
         -0.363636363636364       0.187500000000000      -0.437500000000000       0.002840909090909
         -0.363636363636364       0.187500000000000      -0.312500000000000       0.002840909090909
         -0.363636363636364       0.312500000000000       0.437500000000000       0.002840909090909
         -0.363636363636364       0.437500000000000       0.312500000000000       0.002840909090909
         -0.363636363636364       0.437500000000000       0.437500000000000       0.002840909090909
         -0.272727272727273      -0.437500000000000      -0.312500000000000       0.002840909090909
         -0.272727272727273      -0.437500000000000      -0.187500000000000       0.002840909090909
         -0.272727272727273      -0.437500000000000       0.062500000000000       0.002840909090909
         -0.272727272727273      -0.437500000000000       0.187500000000000       0.002840909090909
         -0.272727272727273      -0.437500000000000       0.312500000000000       0.002840909090909
         -0.272727272727273      -0.437500000000000       0.437500000000000       0.002840909090909
         -0.272727272727273      -0.312500000000000      -0.312500000000000       0.002840909090909
         -0.272727272727273      -0.312500000000000      -0.187500000000000       0.002840909090909
         -0.272727272727273      -0.312500000000000       0.437500000000000       0.002840909090909
         -0.272727272727273      -0.187500000000000      -0.312500000000000       0.002840909090909
         -0.272727272727273      -0.187500000000000      -0.187500000000000       0.002840909090909
         -0.272727272727273      -0.062500000000000      -0.437500000000000       0.002840909090909
         -0.272727272727273       0.312500000000000      -0.437500000000000       0.002840909090909
         -0.272727272727273       0.437500000000000      -0.437500000000000       0.002840909090909
         -0.181818181818182      -0.437500000000000      -0.187500000000000       0.002840909090909
         -0.181818181818182      -0.437500000000000      -0.062500000000000       0.002840909090909
         -0.181818181818182      -0.437500000000000       0.062500000000000       0.002840909090909
         -0.181818181818182      -0.437500000000000       0.312500000000000       0.002840909090909
         -0.181818181818182      -0.437500000000000       0.437500000000000       0.002840909090909
         -0.181818181818182      -0.312500000000000      -0.437500000000000       0.002840909090909
         -0.181818181818182      -0.312500000000000      -0.312500000000000       0.002840909090909
         -0.181818181818182      -0.312500000000000      -0.187500000000000       0.002840909090909
         -0.181818181818182      -0.312500000000000       0.062500000000000       0.002840909090909
         -0.181818181818182      -0.312500000000000       0.187500000000000       0.002840909090909
         -0.181818181818182      -0.312500000000000       0.312500000000000       0.002840909090909
         -0.181818181818182      -0.312500000000000       0.437500000000000       0.002840909090909
         -0.181818181818182      -0.187500000000000      -0.437500000000000       0.002840909090909
         -0.181818181818182      -0.187500000000000      -0.312500000000000       0.002840909090909
         -0.181818181818182      -0.187500000000000      -0.187500000000000       0.002840909090909
         -0.181818181818182      -0.187500000000000      -0.062500000000000       0.002840909090909
         -0.181818181818182      -0.187500000000000       0.062500000000000       0.002840909090909
         -0.181818181818182      -0.187500000000000       0.187500000000000       0.002840909090909
         -0.181818181818182      -0.187500000000000       0.312500000000000       0.002840909090909
         -0.181818181818182      -0.187500000000000       0.437500000000000       0.002840909090909
         -0.181818181818182      -0.062500000000000      -0.437500000000000       0.002840909090909
         -0.181818181818182      -0.062500000000000      -0.312500000000000       0.002840909090909
         -0.181818181818182      -0.062500000000000      -0.187500000000000       0.002840909090909
         -0.181818181818182      -0.062500000000000      -0.062500000000000       0.002840909090909
         -0.181818181818182      -0.062500000000000       0.062500000000000       0.002840909090909
         -0.181818181818182      -0.062500000000000       0.187500000000000       0.002840909090909
         -0.181818181818182      -0.062500000000000       0.312500000000000       0.002840909090909
         -0.181818181818182      -0.062500000000000       0.437500000000000       0.002840909090909
         -0.181818181818182       0.062500000000000      -0.437500000000000       0.002840909090909
         -0.181818181818182       0.062500000000000      -0.312500000000000       0.002840909090909
         -0.181818181818182       0.062500000000000      -0.187500000000000       0.002840909090909
         -0.181818181818182       0.062500000000000      -0.062500000000000       0.002840909090909
         -0.181818181818182       0.062500000000000       0.062500000000000       0.002840909090909
         -0.181818181818182       0.062500000000000       0.187500000000000       0.002840909090909
         -0.181818181818182       0.062500000000000       0.312500000000000       0.002840909090909
         -0.181818181818182       0.062500000000000       0.437500000000000       0.002840909090909
         -0.181818181818182       0.187500000000000      -0.437500000000000       0.002840909090909
         -0.181818181818182       0.187500000000000      -0.312500000000000       0.002840909090909
         -0.181818181818182       0.187500000000000      -0.187500000000000       0.002840909090909
         -0.181818181818182       0.437500000000000      -0.437500000000000       0.002840909090909
         -0.181818181818182       0.437500000000000       0.312500000000000       0.002840909090909
         -0.181818181818182       0.437500000000000       0.437500000000000       0.002840909090909
         -0.090909090909091      -0.437500000000000      -0.437500000000000       0.002840909090909
         -0.090909090909091      -0.437500000000000      -0.312500000000000       0.002840909090909
         -0.090909090909091      -0.437500000000000      -0.187500000000000       0.002840909090909
         -0.090909090909091      -0.437500000000000      -0.062500000000000       0.002840909090909
         -0.090909090909091      -0.437500000000000       0.062500000000000       0.002840909090909
         -0.090909090909091      -0.437500000000000       0.187500000000000       0.002840909090909
         -0.090909090909091      -0.437500000000000       0.312500000000000       0.002840909090909
         -0.090909090909091      -0.437500000000000       0.437500000000000       0.002840909090909
         -0.090909090909091      -0.312500000000000      -0.437500000000000       0.002840909090909
         -0.090909090909091      -0.312500000000000      -0.312500000000000       0.002840909090909
         -0.090909090909091      -0.312500000000000      -0.187500000000000       0.002840909090909
         -0.090909090909091      -0.312500000000000      -0.062500000000000       0.002840909090909
         -0.090909090909091      -0.312500000000000       0.062500000000000       0.002840909090909
         -0.090909090909091      -0.312500000000000       0.187500000000000       0.002840909090909
         -0.090909090909091      -0.312500000000000       0.312500000000000       0.002840909090909
         -0.090909090909091      -0.312500000000000       0.437500000000000       0.002840909090909
         -0.090909090909091      -0.187500000000000      -0.437500000000000       0.002840909090909
         -0.090909090909091      -0.187500000000000      -0.312500000000000       0.002840909090909
         -0.090909090909091      -0.187500000000000      -0.187500000000000       0.002840909090909
         -0.090909090909091      -0.187500000000000      -0.062500000000000       0.002840909090909
         -0.090909090909091      -0.187500000000000       0.062500000000000       0.002840909090909
         -0.090909090909091      -0.187500000000000       0.187500000000000       0.002840909090909
         -0.090909090909091      -0.187500000000000       0.312500000000000       0.002840909090909
         -0.090909090909091      -0.187500000000000       0.437500000000000       0.002840909090909
         -0.090909090909091      -0.062500000000000      -0.437500000000000       0.002840909090909
         -0.090909090909091      -0.062500000000000      -0.312500000000000       0.002840909090909
         -0.090909090909091      -0.062500000000000      -0.187500000000000       0.002840909090909
         -0.090909090909091      -0.062500000000000      -0.062500000000000       0.002840909090909
         -0.090909090909091      -0.062500000000000       0.062500000000000       0.002840909090909
         -0.090909090909091      -0.062500000000000       0.187500000000000       0.002840909090909
         -0.090909090909091      -0.062500000000000       0.312500000000000       0.002840909090909
         -0.090909090909091      -0.062500000000000       0.437500000000000       0.002840909090909
         -0.090909090909091       0.062500000000000      -0.437500000000000       0.002840909090909
         -0.090909090909091       0.062500000000000      -0.312500000000000       0.002840909090909
         -0.090909090909091       0.062500000000000      -0.187500000000000       0.002840909090909
         -0.090909090909091       0.062500000000000      -0.062500000000000       0.002840909090909
         -0.090909090909091       0.062500000000000       0.062500000000000       0.002840909090909
         -0.090909090909091       0.062500000000000       0.187500000000000       0.002840909090909
         -0.090909090909091       0.062500000000000       0.312500000000000       0.002840909090909
         -0.090909090909091       0.062500000000000       0.437500000000000       0.002840909090909
         -0.090909090909091       0.187500000000000      -0.437500000000000       0.002840909090909
         -0.090909090909091       0.187500000000000      -0.312500000000000       0.002840909090909
         -0.090909090909091       0.187500000000000      -0.187500000000000       0.002840909090909
         -0.090909090909091       0.187500000000000      -0.062500000000000       0.002840909090909
         -0.090909090909091       0.187500000000000       0.062500000000000       0.002840909090909
         -0.090909090909091       0.187500000000000       0.187500000000000       0.002840909090909
         -0.090909090909091       0.187500000000000       0.312500000000000       0.002840909090909
         -0.090909090909091       0.187500000000000       0.437500000000000       0.002840909090909
         -0.090909090909091       0.312500000000000      -0.437500000000000       0.002840909090909
         -0.090909090909091       0.312500000000000      -0.312500000000000       0.002840909090909
         -0.090909090909091       0.312500000000000      -0.187500000000000       0.002840909090909
         -0.090909090909091       0.312500000000000      -0.062500000000000       0.002840909090909
         -0.090909090909091       0.312500000000000       0.062500000000000       0.002840909090909
         -0.090909090909091       0.312500000000000       0.187500000000000       0.002840909090909
         -0.090909090909091       0.312500000000000       0.312500000000000       0.002840909090909
         -0.090909090909091       0.312500000000000       0.437500000000000       0.002840909090909
         -0.090909090909091       0.437500000000000      -0.437500000000000       0.002840909090909
         -0.090909090909091       0.437500000000000      -0.312500000000000       0.002840909090909
         -0.090909090909091       0.437500000000000      -0.187500000000000       0.002840909090909
         -0.090909090909091       0.437500000000000      -0.062500000000000       0.002840909090909
         -0.090909090909091       0.437500000000000       0.062500000000000       0.002840909090909
         -0.090909090909091       0.437500000000000       0.187500000000000       0.002840909090909
         -0.090909090909091       0.437500000000000       0.312500000000000       0.002840909090909
         -0.090909090909091       0.437500000000000       0.437500000000000       0.002840909090909
          0.000000000000000      -0.437500000000000      -0.437500000000000       0.002840909090909
          0.000000000000000      -0.437500000000000      -0.312500000000000       0.002840909090909
          0.000000000000000      -0.437500000000000      -0.187500000000000       0.002840909090909
          0.000000000000000      -0.437500000000000      -0.062500000000000       0.002840909090909
          0.000000000000000      -0.437500000000000       0.062500000000000       0.002840909090909
          0.000000000000000      -0.437500000000000       0.187500000000000       0.002840909090909
          0.000000000000000      -0.437500000000000       0.312500000000000       0.002840909090909
          0.000000000000000      -0.437500000000000       0.437500000000000       0.002840909090909
          0.000000000000000      -0.312500000000000      -0.437500000000000       0.002840909090909
          0.000000000000000      -0.312500000000000      -0.312500000000000       0.002840909090909
          0.000000000000000      -0.312500000000000      -0.187500000000000       0.002840909090909
          0.000000000000000      -0.312500000000000      -0.062500000000000       0.002840909090909
          0.000000000000000      -0.312500000000000       0.062500000000000       0.002840909090909
          0.000000000000000      -0.312500000000000       0.187500000000000       0.002840909090909
          0.000000000000000      -0.312500000000000       0.312500000000000       0.002840909090909
          0.000000000000000      -0.312500000000000       0.437500000000000       0.002840909090909
          0.000000000000000      -0.187500000000000      -0.437500000000000       0.002840909090909
          0.000000000000000      -0.187500000000000      -0.312500000000000       0.002840909090909
          0.000000000000000      -0.187500000000000      -0.187500000000000       0.002840909090909
          0.000000000000000      -0.187500000000000      -0.062500000000000       0.002840909090909
          0.000000000000000      -0.187500000000000       0.062500000000000       0.002840909090909
          0.000000000000000      -0.187500000000000       0.187500000000000       0.002840909090909
          0.000000000000000      -0.187500000000000       0.312500000000000       0.002840909090909
          0.000000000000000      -0.187500000000000       0.437500000000000       0.002840909090909
          0.000000000000000      -0.062500000000000      -0.437500000000000       0.002840909090909
          0.000000000000000      -0.062500000000000      -0.312500000000000       0.002840909090909
          0.000000000000000      -0.062500000000000      -0.187500000000000       0.002840909090909
          0.000000000000000      -0.062500000000000      -0.062500000000000       0.002840909090909
          0.000000000000000      -0.062500000000000       0.062500000000000       0.002840909090909
          0.000000000000000      -0.062500000000000       0.187500000000000       0.002840909090909
          0.000000000000000      -0.062500000000000       0.312500000000000       0.002840909090909
          0.000000000000000      -0.062500000000000       0.437500000000000       0.002840909090909
          0.181818181818182      -0.437500000000000      -0.187500000000000       0.002840909090909
          0.181818181818182      -0.437500000000000      -0.062500000000000       0.002840909090909
          0.181818181818182      -0.437500000000000       0.062500000000000       0.002840909090909
          0.181818181818182      -0.437500000000000       0.187500000000000       0.002840909090909
          0.181818181818182      -0.437500000000000       0.312500000000000       0.002840909090909
          0.181818181818182      -0.312500000000000      -0.437500000000000       0.002840909090909
          0.181818181818182      -0.312500000000000      -0.312500000000000       0.002840909090909
          0.181818181818182      -0.312500000000000      -0.187500000000000       0.002840909090909
          0.181818181818182      -0.312500000000000      -0.062500000000000       0.002840909090909
          0.181818181818182      -0.312500000000000       0.062500000000000       0.002840909090909
          0.181818181818182      -0.312500000000000       0.187500000000000       0.002840909090909
          0.181818181818182      -0.312500000000000       0.312500000000000       0.002840909090909
          0.181818181818182      -0.312500000000000       0.437500000000000       0.002840909090909
          0.181818181818182      -0.187500000000000      -0.437500000000000       0.002840909090909
          0.181818181818182      -0.187500000000000      -0.312500000000000       0.002840909090909
          0.181818181818182      -0.187500000000000      -0.187500000000000       0.002840909090909
          0.181818181818182      -0.187500000000000      -0.062500000000000       0.002840909090909
          0.181818181818182      -0.187500000000000       0.062500000000000       0.002840909090909
          0.181818181818182       0.312500000000000       0.062500000000000       0.002840909090909
          0.181818181818182       0.437500000000000      -0.187500000000000       0.002840909090909
          0.181818181818182       0.437500000000000       0.312500000000000       0.002840909090909
          0.181818181818182       0.437500000000000       0.437500000000000       0.002840909090909
          0.272727272727273      -0.437500000000000      -0.437500000000000       0.002840909090909
          0.272727272727273      -0.437500000000000      -0.312500000000000       0.002840909090909
          0.272727272727273      -0.437500000000000      -0.187500000000000       0.002840909090909
          0.272727272727273      -0.437500000000000      -0.062500000000000       0.002840909090909
          0.272727272727273      -0.437500000000000       0.062500000000000       0.002840909090909
          0.272727272727273      -0.437500000000000       0.187500000000000       0.002840909090909
          0.272727272727273      -0.437500000000000       0.312500000000000       0.002840909090909
          0.272727272727273      -0.312500000000000      -0.437500000000000       0.002840909090909
          0.272727272727273      -0.312500000000000      -0.312500000000000       0.002840909090909
          0.272727272727273      -0.312500000000000      -0.187500000000000       0.002840909090909
          0.272727272727273      -0.312500000000000      -0.062500000000000       0.002840909090909
          0.272727272727273      -0.312500000000000       0.062500000000000       0.002840909090909
          0.272727272727273      -0.312500000000000       0.187500000000000       0.002840909090909
          0.272727272727273      -0.312500000000000       0.312500000000000       0.002840909090909
          0.272727272727273      -0.187500000000000      -0.437500000000000       0.002840909090909
          0.272727272727273      -0.187500000000000      -0.312500000000000       0.002840909090909
          0.272727272727273      -0.187500000000000      -0.187500000000000       0.002840909090909
          0.272727272727273      -0.187500000000000      -0.062500000000000       0.002840909090909
          0.272727272727273      -0.187500000000000       0.062500000000000       0.002840909090909
          0.272727272727273      -0.187500000000000       0.187500000000000       0.002840909090909
          0.272727272727273      -0.187500000000000       0.312500000000000       0.002840909090909
          0.272727272727273      -0.187500000000000       0.437500000000000       0.002840909090909
          0.272727272727273      -0.062500000000000      -0.437500000000000       0.002840909090909
          0.272727272727273      -0.062500000000000      -0.312500000000000       0.002840909090909
          0.272727272727273      -0.062500000000000      -0.187500000000000       0.002840909090909
          0.272727272727273      -0.062500000000000      -0.062500000000000       0.002840909090909
          0.272727272727273      -0.062500000000000       0.062500000000000       0.002840909090909
          0.272727272727273      -0.062500000000000       0.187500000000000       0.002840909090909
          0.272727272727273      -0.062500000000000       0.312500000000000       0.002840909090909
          0.272727272727273      -0.062500000000000       0.437500000000000       0.002840909090909
          0.272727272727273       0.062500000000000      -0.437500000000000       0.002840909090909
          0.272727272727273       0.062500000000000      -0.312500000000000       0.002840909090909
          0.272727272727273       0.062500000000000      -0.187500000000000       0.002840909090909
          0.272727272727273       0.062500000000000      -0.062500000000000       0.002840909090909
          0.272727272727273       0.062500000000000       0.062500000000000       0.002840909090909
          0.272727272727273       0.062500000000000       0.187500000000000       0.002840909090909
          0.272727272727273       0.062500000000000       0.312500000000000       0.002840909090909
          0.272727272727273       0.187500000000000      -0.437500000000000       0.002840909090909
          0.272727272727273       0.187500000000000      -0.312500000000000       0.002840909090909
          0.272727272727273       0.187500000000000      -0.187500000000000       0.002840909090909
          0.272727272727273       0.187500000000000      -0.062500000000000       0.002840909090909
          0.272727272727273       0.187500000000000       0.062500000000000       0.002840909090909