# CELL file written 13:12:41 (GMT+1.0) 24th August 2018 from run castep

%BLOCK lattice_cart
   ANG
       3.14815860000000      -0.933320000000000E-02  -0.413000000000000E-02
      -1.51990800000000        4.24233170000000      -0.769800000000000E-02
      -1.54181070000000       -1.84570300000000        3.84504950000000    
%ENDBLOCK lattice_cart

%BLOCK positions_frac
   H              0.732770000000000       0.199609000000000       0.664997000000000
   H              0.330809000000000       0.736498000000000       0.697846000000000
   H              0.628912000000000       0.510144444444444       0.049723000000000
   H              0.257900000000000       0.773071000000000       0.166513000000000
   H              0.669191000000000       0.263502000000000       0.302154000000000
   H              0.267230000000000       0.800391000000000       0.335003000000000
   H              0.742100000000000       0.226929000000000       0.833487000000000
   H              0.179735000000000       0.050266000000000       0.883597000000000
   H              0.796131000000000       0.762769000000000       0.446635000000000
   H              0.820265000000000       0.949734000000000       0.116403000000000
   H              0.203869000000000       0.237231000000000       0.553365000000000
   H              0.789341000000000       0.606843000000000       0.755272000000000
   H              0.210659000000000       0.393157000000000       0.244728000000000
   H              0.371088000000000       0.489855000000000       0.950277000000000
   C              0.974360000000000       0.210029000000000       0.302681000000000
   C              0.025640000000000       0.789971000000000       0.697319000000000
%ENDBLOCK positions_frac

FIX_COM : true

%BLOCK species_gamma
   radsectesla
   H          267522128.0    
%ENDBLOCK species_gamma

%BLOCK species_pot
   H       1|0.6|13|15|17|10(qc=8)
   C       2|1.4|10|12|13|20:21(qc=7)
%ENDBLOCK species_pot

SYMMETRY_TOL :     0.015000

%BLOCK symmetry_ops
# Symm. op. 1       E
          1.000000000000000      -0.000000000000000      -0.000000000000000
         -0.000000000000000       1.000000000000000       0.000000000000000
         -0.000000000000000      -0.000000000000000       1.000000000000000
          0.000000000000000       0.000000000000000       0.000000000000000
# Symm. op. 2       I
         -1.000000000000000       0.000000000000000       0.000000000000000
          0.000000000000000      -1.000000000000000      -0.000000000000000
          0.000000000000000       0.000000000000000      -1.000000000000000
          0.000000000000000       0.000000000000000       0.000000000000000
%ENDBLOCK symmetry_ops

%BLOCK kpoint_list
         -0.450000000000000      -0.428571428571429      -0.428571428571429       0.004081632653061
         -0.450000000000000      -0.428571428571429       0.285714285714286       0.004081632653061
         -0.450000000000000      -0.285714285714286      -0.428571428571429       0.004081632653061
         -0.450000000000000      -0.285714285714286      -0.285714285714286       0.004081632653061
         -0.450000000000000      -0.285714285714286       0.000000000000000       0.004081632653061
         -0.450000000000000      -0.285714285714286       0.285714285714286       0.004081632653061
         -0.450000000000000      -0.285714285714286       0.428571428571429       0.004081632653061
         -0.450000000000000      -0.142857142857143       0.000000000000000       0.004081632653061
         -0.450000000000000      -0.142857142857143       0.142857142857143       0.004081632653061
         -0.450000000000000      -0.142857142857143       0.428571428571429       0.004081632653061
         -0.450000000000000       0.000000000000000       0.000000000000000       0.004081632653061
         -0.450000000000000       0.000000000000000       0.285714285714286       0.004081632653061
         -0.450000000000000       0.000000000000000       0.428571428571429       0.004081632653061
         -0.450000000000000       0.142857142857143      -0.428571428571429       0.004081632653061
         -0.450000000000000       0.142857142857143      -0.142857142857143       0.004081632653061
         -0.450000000000000       0.142857142857143       0.000000000000000       0.004081632653061
         -0.450000000000000       0.142857142857143       0.142857142857143       0.004081632653061
         -0.450000000000000       0.142857142857143       0.285714285714286       0.004081632653061
         -0.450000000000000       0.142857142857143       0.428571428571429       0.004081632653061
         -0.450000000000000       0.285714285714286      -0.285714285714286       0.004081632653061
         -0.450000000000000       0.285714285714286       0.000000000000000       0.004081632653061
         -0.450000000000000       0.285714285714286       0.142857142857143       0.004081632653061
         -0.450000000000000       0.285714285714286       0.285714285714286       0.004081632653061
         -0.450000000000000       0.285714285714286       0.428571428571429       0.004081632653061
         -0.450000000000000       0.428571428571429      -0.428571428571429       0.004081632653061
         -0.450000000000000       0.428571428571429      -0.285714285714286       0.004081632653061
         -0.450000000000000       0.428571428571429      -0.142857142857143       0.004081632653061
         -0.450000000000000       0.428571428571429       0.285714285714286       0.004081632653061
         -0.350000000000000      -0.428571428571429      -0.285714285714286       0.004081632653061
         -0.350000000000000      -0.428571428571429       0.000000000000000       0.004081632653061
         -0.350000000000000      -0.428571428571429       0.142857142857143       0.004081632653061
         -0.350000000000000      -0.428571428571429       0.285714285714286       0.004081632653061
         -0.350000000000000      -0.285714285714286      -0.428571428571429       0.004081632653061
         -0.350000000000000      -0.285714285714286      -0.142857142857143       0.004081632653061
         -0.350000000000000      -0.142857142857143      -0.428571428571429       0.004081632653061
         -0.350000000000000      -0.142857142857143      -0.285714285714286       0.004081632653061
         -0.350000000000000      -0.142857142857143      -0.142857142857143       0.004081632653061
         -0.350000000000000      -0.142857142857143       0.000000000000000       0.004081632653061
         -0.350000000000000      -0.142857142857143       0.285714285714286       0.004081632653061
         -0.350000000000000      -0.142857142857143       0.428571428571429       0.004081632653061
         -0.350000000000000       0.000000000000000      -0.428571428571429       0.004081632653061
         -0.350000000000000       0.000000000000000      -0.285714285714286       0.004081632653061
         -0.350000000000000       0.000000000000000      -0.142857142857143       0.004081632653061
         -0.350000000000000       0.000000000000000       0.000000000000000       0.004081632653061
         -0.350000000000000       0.000000000000000       0.142857142857143       0.004081632653061
         -0.350000000000000       0.000000000000000       0.285714285714286       0.004081632653061
         -0.350000000000000       0.000000000000000       0.428571428571429       0.004081632653061
         -0.350000000000000       0.142857142857143      -0.428571428571429       0.004081632653061
         -0.350000000000000       0.142857142857143      -0.142857142857143       0.004081632653061
         -0.350000000000000       0.142857142857143       0.000000000000000       0.004081632653061
         -0.350000000000000       0.142857142857143       0.142857142857143       0.004081632653061
         -0.350000000000000       0.142857142857143       0.285714285714286       0.004081632653061
         -0.350000000000000       0.142857142857143       0.428571428571429       0.004081632653061
         -0.350000000000000       0.285714285714286      -0.285714285714286       0.004081632653061
         -0.350000000000000       0.285714285714286      -0.142857142857143       0.004081632653061
         -0.350000000000000       0.285714285714286       0.000000000000000       0.004081632653061
         -0.350000000000000       0.285714285714286       0.142857142857143       0.004081632653061
         -0.350000000000000       0.285714285714286       0.285714285714286       0.004081632653061
         -0.350000000000000       0.428571428571429      -0.428571428571429       0.004081632653061
         -0.350000000000000       0.428571428571429      -0.142857142857143       0.004081632653061
         -0.350000000000000       0.428571428571429       0.000000000000000       0.004081632653061
         -0.350000000000000       0.428571428571429       0.142857142857143       0.004081632653061
         -0.350000000000000       0.428571428571429       0.285714285714286       0.004081632653061
         -0.350000000000000       0.428571428571429       0.428571428571429       0.004081632653061
         -0.250000000000000      -0.428571428571429      -0.285714285714286       0.004081632653061
         -0.250000000000000      -0.428571428571429       0.000000000000000       0.004081632653061
         -0.250000000000000      -0.428571428571429       0.142857142857143       0.004081632653061
         -0.250000000000000      -0.428571428571429       0.428571428571429       0.004081632653061
         -0.250000000000000      -0.285714285714286      -0.285714285714286       0.004081632653061
         -0.250000000000000      -0.142857142857143      -0.285714285714286       0.004081632653061
         -0.250000000000000       0.142857142857143      -0.285714285714286       0.004081632653061
         -0.250000000000000       0.142857142857143      -0.142857142857143       0.004081632653061
         -0.250000000000000       0.142857142857143       0.000000000000000       0.004081632653061
         -0.250000000000000       0.142857142857143       0.142857142857143       0.004081632653061
         -0.250000000000000       0.142857142857143       0.285714285714286       0.004081632653061
         -0.250000000000000       0.142857142857143       0.428571428571429       0.004081632653061
         -0.250000000000000       0.285714285714286      -0.428571428571429       0.004081632653061
         -0.250000000000000       0.285714285714286      -0.285714285714286       0.004081632653061
         -0.250000000000000       0.285714285714286      -0.142857142857143       0.004081632653061
         -0.250000000000000       0.285714285714286       0.000000000000000       0.004081632653061
         -0.250000000000000       0.285714285714286       0.142857142857143       0.004081632653061
         -0.250000000000000       0.285714285714286       0.285714285714286       0.004081632653061
         -0.250000000000000       0.285714285714286       0.428571428571429       0.004081632653061
         -0.250000000000000       0.428571428571429      -0.285714285714286       0.004081632653061
         -0.250000000000000       0.428571428571429      -0.142857142857143       0.004081632653061
         -0.250000000000000       0.428571428571429       0.000000000000000       0.004081632653061
         -0.250000000000000       0.428571428571429       0.142857142857143       0.004081632653061
         -0.250000000000000       0.428571428571429       0.285714285714286       0.004081632653061
         -0.150000000000000      -0.428571428571429      -0.428571428571429       0.004081632653061
         -0.150000000000000      -0.428571428571429      -0.285714285714286       0.004081632653061
         -0.150000000000000      -0.428571428571429      -0.142857142857143       0.004081632653061
         -0.150000000000000      -0.428571428571429       0.000000000000000       0.004081632653061
         -0.150000000000000      -0.428571428571429       0.142857142857143       0.004081632653061
         -0.150000000000000      -0.428571428571429       0.285714285714286       0.004081632653061
         -0.150000000000000      -0.428571428571429       0.428571428571429       0.004081632653061
         -0.150000000000000      -0.285714285714286      -0.142857142857143       0.004081632653061
         -0.150000000000000      -0.285714285714286       0.000000000000000       0.004081632653061
         -0.150000000000000      -0.285714285714286       0.142857142857143       0.004081632653061
         -0.150000000000000      -0.285714285714286       0.285714285714286       0.004081632653061
         -0.150000000000000      -0.285714285714286       0.428571428571429       0.004081632653061
         -0.150000000000000      -0.142857142857143      -0.428571428571429       0.004081632653061
         -0.150000000000000      -0.142857142857143      -0.285714285714286       0.004081632653061
         -0.150000000000000       0.428571428571429       0.428571428571429       0.004081632653061
         -0.050000000000000       0.285714285714286       0.142857142857143       0.004081632653061
         -0.050000000000000       0.285714285714286       0.285714285714286       0.004081632653061
         -0.050000000000000       0.285714285714286       0.428571428571429       0.004081632653061
         -0.050000000000000       0.428571428571429      -0.428571428571429       0.004081632653061
         -0.050000000000000       0.428571428571429      -0.285714285714286       0.004081632653061
         -0.050000000000000       0.428571428571429      -0.142857142857143       0.004081632653061
         -0.050000000000000       0.428571428571429       0.000000000000000       0.004081632653061
         -0.050000000000000       0.428571428571429       0.142857142857143       0.004081632653061
         -0.050000000000000       0.428571428571429       0.285714285714286       0.004081632653061
         -0.050000000000000       0.428571428571429       0.428571428571429       0.004081632653061
          0.050000000000000      -0.285714285714286       0.000000000000000       0.004081632653061
          0.050000000000000      -0.285714285714286       0.142857142857143       0.004081632653061
          0.050000000000000      -0.285714285714286       0.285714285714286       0.004081632653061
          0.050000000000000      -0.285714285714286       0.428571428571429       0.004081632653061
          0.050000000000000      -0.142857142857143      -0.428571428571429       0.004081632653061
          0.050000000000000      -0.142857142857143      -0.285714285714286       0.004081632653061
          0.050000000000000      -0.142857142857143      -0.142857142857143       0.004081632653061
          0.050000000000000      -0.142857142857143       0.000000000000000       0.004081632653061
          0.050000000000000      -0.142857142857143       0.142857142857143       0.004081632653061
          0.050000000000000      -0.142857142857143       0.285714285714286       0.004081632653061
          0.050000000000000      -0.142857142857143       0.428571428571429       0.004081632653061
          0.050000000000000       0.000000000000000      -0.428571428571429       0.004081632653061
          0.050000000000000       0.000000000000000      -0.285714285714286       0.004081632653061
          0.050000000000000       0.000000000000000      -0.142857142857143       0.004081632653061
          0.050000000000000       0.000000000000000       0.000000000000000       0.004081632653061
          0.050000000000000       0.000000000000000       0.142857142857143       0.004081632653061
          0.050000000000000       0.000000000000000       0.285714285714286       0.004081632653061
          0.050000000000000       0.000000000000000       0.428571428571429       0.004081632653061
          0.050000000000000       0.142857142857143      -0.428571428571429       0.004081632653061
          0.050000000000000       0.142857142857143      -0.285714285714286       0.004081632653061
          0.050000000000000       0.142857142857143      -0.142857142857143       0.004081632653061
          0.050000000000000       0.142857142857143       0.000000000000000       0.004081632653061
          0.050000000000000       0.142857142857143       0.142857142857143       0.004081632653061
          0.050000000000000       0.142857142857143       0.285714285714286       0.004081632653061
          0.050000000000000       0.142857142857143       0.428571428571429       0.004081632653061
          0.050000000000000       0.285714285714286      -0.428571428571429       0.004081632653061
          0.050000000000000       0.285714285714286      -0.285714285714286       0.004081632653061
          0.050000000000000       0.285714285714286      -0.142857142857143       0.004081632653061
          0.050000000000000       0.285714285714286       0.000000000000000       0.004081632653061
          0.050000000000000       0.285714285714286       0.142857142857143       0.004081632653061
          0.050000000000000       0.285714285714286       0.285714285714286       0.004081632653061
          0.050000000000000       0.285714285714286       0.428571428571429       0.004081632653061
          0.050000000000000       0.428571428571429      -0.428571428571429       0.004081632653061
          0.050000000000000       0.428571428571429      -0.285714285714286       0.004081632653061
          0.050000000000000       0.428571428571429      -0.142857142857143       0.004081632653061
          0.050000000000000       0.428571428571429       0.000000000000000       0.004081632653061
          0.050000000000000       0.428571428571429       0.142857142857143       0.004081632653061
          0.050000000000000       0.428571428571429       0.285714285714286       0.004081632653061
          0.050000000000000       0.428571428571429       0.428571428571429       0.004081632653061
          0.150000000000000      -0.428571428571429      -0.285714285714286       0.004081632653061
          0.150000000000000      -0.428571428571429      -0.142857142857143       0.004081632653061
          0.150000000000000      -0.428571428571429       0.000000000000000       0.004081632653061
          0.150000000000000      -0.428571428571429       0.142857142857143       0.004081632653061
          0.150000000000000      -0.428571428571429       0.285714285714286       0.004081632653061
          0.150000000000000      -0.428571428571429       0.428571428571429       0.004081632653061
          0.150000000000000      -0.285714285714286      -0.428571428571429       0.004081632653061
          0.150000000000000      -0.285714285714286      -0.285714285714286       0.004081632653061
          0.150000000000000      -0.285714285714286      -0.142857142857143       0.004081632653061
          0.150000000000000      -0.285714285714286       0.000000000000000       0.004081632653061
          0.150000000000000      -0.285714285714286       0.142857142857143       0.004081632653061
          0.150000000000000      -0.285714285714286       0.285714285714286       0.004081632653061
          0.150000000000000      -0.285714285714286       0.428571428571429       0.004081632653061
          0.150000000000000      -0.142857142857143      -0.428571428571429       0.004081632653061
          0.150000000000000      -0.142857142857143      -0.285714285714286       0.004081632653061
          0.150000000000000      -0.142857142857143      -0.142857142857143       0.004081632653061
          0.150000000000000      -0.142857142857143       0.000000000000000       0.004081632653061
          0.150000000000000      -0.142857142857143       0.142857142857143       0.004081632653061
          0.150000000000000      -0.142857142857143       0.285714285714286       0.004081632653061
          0.150000000000000      -0.142857142857143       0.428571428571429       0.004081632653061
          0.150000000000000       0.000000000000000      -0.428571428571429       0.004081632653061
          0.150000000000000       0.000000000000000      -0.285714285714286       0.004081632653061
          0.150000000000000       0.000000000000000      -0.142857142857143       0.004081632653061
          0.150000000000000       0.000000000000000       0.000000000000000       0.004081632653061
          0.150000000000000       0.000000000000000       0.142857142857143       0.004081632653061
          0.150000000000000       0.000000000000000       0.285714285714286       0.004081632653061
          0.150000000000000       0.000000000000000       0.428571428571429       0.004081632653061
          0.150000000000000       0.142857142857143      -0.428571428571429       0.004081632653061
          0.150000000000000       0.142857142857143      -0.285714285714286       0.004081632653061
          0.150000000000000       0.142857142857143      -0.142857142857143       0.004081632653061
          0.150000000000000       0.142857142857143       0.000000000000000       0.004081632653061
          0.150000000000000       0.142857142857143       0.142857142857143       0.004081632653061
          0.150000000000000       0.285714285714286       0.285714285714286       0.004081632653061
          0.150000000000000       0.285714285714286       0.428571428571429       0.004081632653061
          0.250000000000000      -0.428571428571429      -0.428571428571429       0.004081632653061
          0.250000000000000      -0.428571428571429       0.428571428571429       0.004081632653061
          0.250000000000000      -0.142857142857143       0.428571428571429       0.004081632653061
          0.250000000000000       0.000000000000000      -0.428571428571429       0.004081632653061
          0.250000000000000       0.000000000000000      -0.285714285714286       0.004081632653061
          0.250000000000000       0.000000000000000      -0.142857142857143       0.004081632653061
          0.250000000000000       0.000000000000000       0.000000000000000       0.004081632653061
          0.250000000000000       0.000000000000000       0.142857142857143       0.004081632653061
          0.250000000000000       0.000000000000000       0.285714285714286       0.004081632653061
          0.250000000000000       0.000000000000000       0.428571428571429       0.004081632653061
          0.250000000000000       0.142857142857143      -0.428571428571429       0.004081632653061
          0.250000000000000       0.142857142857143      -0.285714285714286       0.004081632653061
          0.250000000000000       0.142857142857143      -0.142857142857143       0.004081632653061
          0.250000000000000       0.142857142857143       0.000000000000000       0.004081632653061
          0.250000000000000       0.142857142857143       0.142857142857143       0.004081632653061
          0.250000000000000       0.142857142857143       0.428571428571429       0.004081632653061
          0.250000000000000       0.285714285714286      -0.428571428571429       0.004081632653061
          0.250000000000000       0.285714285714286      -0.285714285714286       0.004081632653061
          0.250000000000000       0.285714285714286      -0.142857142857143       0.004081632653061
          0.250000000000000       0.285714285714286       0.000000000000000       0.004081632653061
          0.250000000000000       0.285714285714286       0.142857142857143       0.004081632653061
          0.250000000000000       0.285714285714286       0.428571428571429       0.004081632653061
          0.250000000000000       0.428571428571429      -0.285714285714286       0.004081632653061
          0.250000000000000       0.428571428571429       0.142857142857143       0.004081632653061
          0.250000000000000       0.428571428571429       0.428571428571429       0.004081632653061
          0.350000000000000      -0.428571428571429       0.285714285714286       0.004081632653061
          0.350000000000000      -0.285714285714286      -0.428571428571429       0.004081632653061
          0.350000000000000      -0.285714285714286       0.428571428571429       0.004081632653061
          0.350000000000000      -0.142857142857143       0.285714285714286       0.004081632653061
          0.350000000000000       0.142857142857143      -0.142857142857143       0.004081632653061
          0.350000000000000       0.285714285714286      -0.428571428571429       0.004081632653061
          0.350000000000000       0.285714285714286      -0.285714285714286       0.004081632653061
          0.350000000000000       0.285714285714286      -0.142857142857143       0.004081632653061
          0.350000000000000       0.285714285714286       0.000000000000000       0.004081632653061
          0.350000000000000       0.285714285714286       0.285714285714286       0.004081632653061
          0.350000000000000       0.428571428571429      -0.428571428571429       0.004081632653061
          0.350000000000000       0.428571428571429       0.142857142857143       0.004081632653061
          0.350000000000000       0.428571428571429       0.428571428571429       0.004081632653061
          0.450000000000000      -0.428571428571429      -0.428571428571429       0.004081632653061
          0.450000000000000      -0.428571428571429      -0.142857142857143       0.004081632653061
          0.450000000000000      -0.428571428571429       0.000000000000000       0.004081632653061
          0.450000000000000      -0.285714285714286       0.142857142857143       0.004081632653061
          0.450000000000000      -0.285714285714286       0.428571428571429       0.004081632653061
          0.450000000000000      -0.142857142857143       0.285714285714286       0.004081632653061
          0.450000000000000       0.000000000000000      -0.142857142857143       0.004081632653061
          0.450000000000000       0.000000000000000       0.142857142857143       0.004081632653061
          0.450000000000000       0.000000000000000       0.285714285714286       0.004081632653061
          0.450000000000000       0.000000000000000       0.428571428571429       0.004081632653061
          0.450000000000000       0.142857142857143      -0.285714285714286       0.004081632653061
          0.450000000000000       0.142857142857143       0.142857142857143       0.004081632653061
          0.450000000000000       0.142857142857143       0.285714285714286       0.004081632653061
          0.450000000000000       0.142857142857143       0.428571428571429       0.004081632653061
          0.450000000000000       0.285714285714286      -0.142857142857143       0.004081632653061
          0.450000000000000       0.285714285714286       0.142857142857143       0.004081632653061
          0.450000000000000       0.428571428571429      -0.428571428571429       0.004081632653061
          0.450000000000000       0.428571428571429      -0.142857142857143       0.004081632653061
          0.450000000000000       0.428571428571429       0.000000000000000       0.004081632653061
          0.450000000000000       0.428571428571429       0.142857142857143       0.004081632653061
          0.450000000000000       0.428571428571429       0.285714285714286       0.004081632653061
%ENDBLOCK kpoint_list

%BLOCK bs_kpoint_list
         -0.450000000000000      -0.428571428571429      -0.428571428571429       0.004081632653061
         -0.450000000000000      -0.428571428571429       0.285714285714286       0.004081632653061
         -0.450000000000000      -0.285714285714286      -0.428571428571429       0.004081632653061
         -0.450000000000000      -0.285714285714286      -0.285714285714286       0.004081632653061
         -0.450000000000000      -0.285714285714286       0.000000000000000       0.004081632653061
         -0.450000000000000      -0.285714285714286       0.285714285714286       0.004081632653061
         -0.450000000000000      -0.285714285714286       0.428571428571429       0.004081632653061
         -0.450000000000000      -0.142857142857143       0.000000000000000       0.004081632653061
         -0.450000000000000      -0.142857142857143       0.142857142857143       0.004081632653061
         -0.450000000000000      -0.142857142857143       0.428571428571429       0.004081632653061
         -0.450000000000000       0.000000000000000       0.000000000000000       0.004081632653061
         -0.450000000000000       0.000000000000000       0.285714285714286       0.004081632653061
         -0.450000000000000       0.000000000000000       0.428571428571429       0.004081632653061
         -0.450000000000000       0.142857142857143      -0.428571428571429       0.004081632653061
         -0.450000000000000       0.142857142857143      -0.142857142857143       0.004081632653061
         -0.450000000000000       0.142857142857143       0.000000000000000       0.004081632653061
         -0.450000000000000       0.142857142857143       0.142857142857143       0.004081632653061
         -0.450000000000000       0.142857142857143       0.285714285714286       0.004081632653061
         -0.450000000000000       0.142857142857143       0.428571428571429       0.004081632653061
         -0.450000000000000       0.285714285714286      -0.285714285714286       0.004081632653061
         -0.450000000000000       0.285714285714286       0.000000000000000       0.004081632653061
         -0.450000000000000       0.285714285714286       0.142857142857143       0.004081632653061
         -0.450000000000000       0.285714285714286       0.285714285714286       0.004081632653061
         -0.450000000000000       0.285714285714286       0.428571428571429       0.004081632653061
         -0.450000000000000       0.428571428571429      -0.428571428571429       0.004081632653061
         -0.450000000000000       0.428571428571429      -0.285714285714286       0.004081632653061
         -0.450000000000000       0.428571428571429      -0.142857142857143       0.004081632653061