# CELL file written 16:15:31 (GMT-0.0) 4th March 2019 from run castep

%BLOCK lattice_cart
   ANG
       3.54044758095657      -0.183867118513222E-01  -0.122720658779602E-01
      -1.72002619884242        4.72391550863728       0.286817722853213E-02
      -1.73858466703666       -2.04261215243300        4.28254968930517    
%ENDBLOCK lattice_cart

%BLOCK positions_frac
   H              0.731103567205249       0.209394951850740       0.671848544614532
   H              0.289476990537818       0.730741110921154       0.707923141977735
   H              0.620849493801433       0.516334971141892       0.041417865259593
   H              0.266258636096953       0.783613318078351       0.179621664299313
   H              0.710523009462181       0.269258889078848       0.292076858022265
   H              0.268896432794752       0.790605048149259       0.328151455385469
   H              0.733741363903048       0.216386681921650       0.820378335700688
   H              0.168286488862959       0.027117522754779       0.870205737223275
   H              0.827807492539931       0.768201044550670       0.469379257141405
   H              0.831713511137041       0.972882477245219       0.129794262776727
   H              0.172192507460068       0.231798955449332       0.530620742858594
   H              0.788281771711114       0.626977616931179       0.748164419780279
   H              0.211718228288888       0.373022383068820       0.251835580219720
   H              0.379150506198569       0.483665028858108       0.958582134740409
   C              0.980455088421314       0.211276101704875       0.300210959053251
   C              0.019544911578683       0.788723898295123       0.699789040946749
%ENDBLOCK positions_frac

FIX_COM : true

%BLOCK species_gamma
   radsectesla
   H          267522128.0    
%ENDBLOCK species_gamma

%BLOCK species_pot
   H       1|0.6|13|15|17|10(qc=8)[]
   C       2|1.4|10|12|13|20:21(qc=7)[]
%ENDBLOCK species_pot

SYMMETRY_TOL :     0.001000

%BLOCK symmetry_ops
# Symm. op. 1       E
          1.000000000000000       0.000000000000000       0.000000000000000
          0.000000000000000       1.000000000000000       0.000000000000000
          0.000000000000000       0.000000000000000       1.000000000000000
          0.000000000000000       0.000000000000000       0.000000000000000
# Symm. op. 2       I
         -1.000000000000000       0.000000000000000       0.000000000000000
          0.000000000000000      -1.000000000000000       0.000000000000000
          0.000000000000000       0.000000000000000      -1.000000000000000
          0.000000000000000       0.000000000000000       0.000000000000000
%ENDBLOCK symmetry_ops

%BLOCK kpoint_list
         -0.458333333333333      -0.437500000000000      -0.062500000000000       0.002604166666667
         -0.458333333333333      -0.437500000000000       0.062500000000000       0.002604166666667
         -0.458333333333333      -0.437500000000000       0.187500000000000       0.002604166666667
         -0.458333333333333      -0.437500000000000       0.312500000000000       0.002604166666667
         -0.458333333333333      -0.437500000000000       0.437500000000000       0.002604166666667
         -0.458333333333333      -0.312500000000000      -0.187500000000000       0.002604166666667
         -0.458333333333333      -0.312500000000000       0.062500000000000       0.002604166666667
         -0.458333333333333      -0.312500000000000       0.187500000000000       0.002604166666667
         -0.458333333333333      -0.312500000000000       0.437500000000000       0.002604166666667
         -0.458333333333333      -0.187500000000000      -0.312500000000000       0.002604166666667
         -0.458333333333333      -0.187500000000000       0.312500000000000       0.002604166666667
         -0.458333333333333      -0.187500000000000       0.437500000000000       0.002604166666667
         -0.458333333333333      -0.062500000000000      -0.312500000000000       0.002604166666667
         -0.458333333333333      -0.062500000000000      -0.062500000000000       0.002604166666667
         -0.458333333333333      -0.062500000000000       0.187500000000000       0.002604166666667
         -0.458333333333333      -0.062500000000000       0.437500000000000       0.002604166666667
         -0.458333333333333       0.062500000000000      -0.437500000000000       0.002604166666667
         -0.458333333333333       0.062500000000000      -0.312500000000000       0.002604166666667
         -0.458333333333333       0.062500000000000      -0.062500000000000       0.002604166666667
         -0.458333333333333       0.062500000000000       0.062500000000000       0.002604166666667
         -0.458333333333333       0.062500000000000       0.187500000000000       0.002604166666667
         -0.458333333333333       0.062500000000000       0.312500000000000       0.002604166666667
         -0.458333333333333       0.062500000000000       0.437500000000000       0.002604166666667
         -0.458333333333333       0.187500000000000      -0.437500000000000       0.002604166666667
         -0.458333333333333       0.187500000000000      -0.187500000000000       0.002604166666667
         -0.458333333333333       0.187500000000000      -0.062500000000000       0.002604166666667
         -0.458333333333333       0.187500000000000       0.312500000000000       0.002604166666667
         -0.458333333333333       0.312500000000000       0.312500000000000       0.002604166666667
         -0.458333333333333       0.437500000000000      -0.062500000000000       0.002604166666667
         -0.458333333333333       0.437500000000000       0.187500000000000       0.002604166666667
         -0.458333333333333       0.437500000000000       0.312500000000000       0.002604166666667
         -0.458333333333333       0.437500000000000       0.437500000000000       0.002604166666667
         -0.375000000000000      -0.437500000000000      -0.312500000000000       0.002604166666667
         -0.375000000000000      -0.437500000000000      -0.187500000000000       0.002604166666667
         -0.375000000000000      -0.437500000000000      -0.062500000000000       0.002604166666667
         -0.375000000000000      -0.437500000000000       0.062500000000000       0.002604166666667
         -0.375000000000000      -0.437500000000000       0.187500000000000       0.002604166666667
         -0.375000000000000      -0.312500000000000      -0.062500000000000       0.002604166666667
         -0.375000000000000      -0.312500000000000       0.062500000000000       0.002604166666667
         -0.375000000000000      -0.312500000000000       0.312500000000000       0.002604166666667
         -0.375000000000000      -0.187500000000000      -0.437500000000000       0.002604166666667
         -0.375000000000000      -0.187500000000000      -0.312500000000000       0.002604166666667
         -0.375000000000000      -0.187500000000000      -0.187500000000000       0.002604166666667
         -0.375000000000000      -0.187500000000000      -0.062500000000000       0.002604166666667
         -0.375000000000000      -0.187500000000000       0.187500000000000       0.002604166666667
         -0.375000000000000      -0.187500000000000       0.437500000000000       0.002604166666667
         -0.375000000000000      -0.062500000000000      -0.437500000000000       0.002604166666667
         -0.375000000000000      -0.062500000000000      -0.187500000000000       0.002604166666667
         -0.375000000000000      -0.062500000000000      -0.062500000000000       0.002604166666667
         -0.375000000000000       0.062500000000000      -0.437500000000000       0.002604166666667
         -0.375000000000000       0.062500000000000      -0.312500000000000       0.002604166666667
         -0.375000000000000       0.187500000000000      -0.437500000000000       0.002604166666667
         -0.375000000000000       0.187500000000000      -0.187500000000000       0.002604166666667
         -0.375000000000000       0.312500000000000      -0.437500000000000       0.002604166666667
         -0.375000000000000       0.437500000000000      -0.437500000000000       0.002604166666667
         -0.375000000000000       0.437500000000000       0.062500000000000       0.002604166666667
         -0.375000000000000       0.437500000000000       0.312500000000000       0.002604166666667
         -0.375000000000000       0.437500000000000       0.437500000000000       0.002604166666667
         -0.291666666666667      -0.437500000000000      -0.437500000000000       0.002604166666667
         -0.291666666666667      -0.437500000000000      -0.187500000000000       0.002604166666667
         -0.291666666666667      -0.437500000000000       0.062500000000000       0.002604166666667
         -0.291666666666667      -0.437500000000000       0.187500000000000       0.002604166666667
         -0.291666666666667      -0.437500000000000       0.437500000000000       0.002604166666667
         -0.291666666666667      -0.312500000000000      -0.437500000000000       0.002604166666667
         -0.291666666666667      -0.312500000000000      -0.312500000000000       0.002604166666667
         -0.291666666666667      -0.312500000000000      -0.187500000000000       0.002604166666667
         -0.291666666666667      -0.312500000000000       0.312500000000000       0.002604166666667
         -0.291666666666667      -0.312500000000000       0.437500000000000       0.002604166666667
         -0.291666666666667      -0.187500000000000      -0.187500000000000       0.002604166666667
         -0.291666666666667      -0.187500000000000       0.062500000000000       0.002604166666667
         -0.291666666666667      -0.187500000000000       0.187500000000000       0.002604166666667
         -0.291666666666667      -0.187500000000000       0.312500000000000       0.002604166666667
         -0.291666666666667      -0.062500000000000      -0.437500000000000       0.002604166666667
         -0.291666666666667      -0.062500000000000      -0.187500000000000       0.002604166666667
         -0.291666666666667       0.062500000000000      -0.437500000000000       0.002604166666667
         -0.291666666666667       0.312500000000000      -0.437500000000000       0.002604166666667
         -0.291666666666667       0.437500000000000      -0.437500000000000       0.002604166666667
         -0.208333333333333       0.437500000000000      -0.437500000000000       0.002604166666667
         -0.208333333333333       0.437500000000000       0.437500000000000       0.002604166666667
         -0.125000000000000      -0.437500000000000      -0.312500000000000       0.002604166666667
         -0.125000000000000      -0.437500000000000      -0.187500000000000       0.002604166666667
         -0.125000000000000      -0.437500000000000      -0.062500000000000       0.002604166666667
         -0.125000000000000      -0.437500000000000       0.062500000000000       0.002604166666667
         -0.125000000000000      -0.437500000000000       0.187500000000000       0.002604166666667
         -0.125000000000000      -0.437500000000000       0.312500000000000       0.002604166666667
         -0.125000000000000      -0.437500000000000       0.437500000000000       0.002604166666667
         -0.125000000000000      -0.312500000000000      -0.437500000000000       0.002604166666667
         -0.125000000000000      -0.312500000000000      -0.312500000000000       0.002604166666667
         -0.125000000000000      -0.312500000000000      -0.187500000000000       0.002604166666667
         -0.125000000000000      -0.312500000000000      -0.062500000000000       0.002604166666667
         -0.125000000000000      -0.312500000000000       0.062500000000000       0.002604166666667
         -0.125000000000000      -0.312500000000000       0.187500000000000       0.002604166666667
         -0.125000000000000      -0.312500000000000       0.312500000000000       0.002604166666667
         -0.125000000000000      -0.312500000000000       0.437500000000000       0.002604166666667
         -0.125000000000000      -0.187500000000000      -0.437500000000000       0.002604166666667
         -0.125000000000000      -0.187500000000000      -0.312500000000000       0.002604166666667
         -0.125000000000000      -0.187500000000000      -0.187500000000000       0.002604166666667
         -0.125000000000000      -0.187500000000000      -0.062500000000000       0.002604166666667
         -0.125000000000000      -0.187500000000000       0.062500000000000       0.002604166666667
         -0.125000000000000      -0.187500000000000       0.187500000000000       0.002604166666667
         -0.125000000000000      -0.187500000000000       0.312500000000000       0.002604166666667
         -0.125000000000000      -0.187500000000000       0.437500000000000       0.002604166666667
         -0.125000000000000      -0.062500000000000      -0.437500000000000       0.002604166666667
         -0.125000000000000      -0.062500000000000      -0.312500000000000       0.002604166666667
         -0.125000000000000      -0.062500000000000      -0.187500000000000       0.002604166666667
         -0.125000000000000      -0.062500000000000      -0.062500000000000       0.002604166666667
         -0.125000000000000      -0.062500000000000       0.062500000000000       0.002604166666667
         -0.125000000000000      -0.062500000000000       0.187500000000000       0.002604166666667
         -0.125000000000000      -0.062500000000000       0.312500000000000       0.002604166666667
         -0.125000000000000      -0.062500000000000       0.437500000000000       0.002604166666667
         -0.125000000000000       0.062500000000000      -0.437500000000000       0.002604166666667
         -0.125000000000000       0.062500000000000      -0.312500000000000       0.002604166666667
         -0.125000000000000       0.062500000000000      -0.187500000000000       0.002604166666667
         -0.125000000000000       0.062500000000000      -0.062500000000000       0.002604166666667
         -0.125000000000000       0.062500000000000       0.062500000000000       0.002604166666667
         -0.125000000000000       0.062500000000000       0.187500000000000       0.002604166666667
         -0.125000000000000       0.062500000000000       0.312500000000000       0.002604166666667
         -0.125000000000000       0.062500000000000       0.437500000000000       0.002604166666667
         -0.125000000000000       0.187500000000000      -0.437500000000000       0.002604166666667
         -0.125000000000000       0.187500000000000      -0.312500000000000       0.002604166666667
         -0.125000000000000       0.187500000000000      -0.187500000000000       0.002604166666667
         -0.125000000000000       0.187500000000000      -0.062500000000000       0.002604166666667
         -0.125000000000000       0.187500000000000       0.062500000000000       0.002604166666667
         -0.125000000000000       0.187500000000000       0.187500000000000       0.002604166666667
         -0.125000000000000       0.187500000000000       0.312500000000000       0.002604166666667
         -0.125000000000000       0.187500000000000       0.437500000000000       0.002604166666667
         -0.125000000000000       0.312500000000000      -0.437500000000000       0.002604166666667
         -0.125000000000000       0.312500000000000      -0.312500000000000       0.002604166666667
         -0.125000000000000       0.312500000000000      -0.187500000000000       0.002604166666667
         -0.125000000000000       0.312500000000000      -0.062500000000000       0.002604166666667
         -0.125000000000000       0.312500000000000       0.062500000000000       0.002604166666667
         -0.125000000000000       0.312500000000000       0.187500000000000       0.002604166666667
         -0.125000000000000       0.312500000000000       0.312500000000000       0.002604166666667
         -0.125000000000000       0.312500000000000       0.437500000000000       0.002604166666667
         -0.125000000000000       0.437500000000000      -0.437500000000000       0.002604166666667
         -0.125000000000000       0.437500000000000      -0.312500000000000       0.002604166666667
         -0.125000000000000       0.437500000000000      -0.187500000000000       0.002604166666667
         -0.125000000000000       0.437500000000000      -0.062500000000000       0.002604166666667
         -0.125000000000000       0.437500000000000       0.062500000000000       0.002604166666667
         -0.125000000000000       0.437500000000000       0.187500000000000       0.002604166666667
         -0.125000000000000       0.437500000000000       0.312500000000000       0.002604166666667
         -0.125000000000000       0.437500000000000       0.437500000000000       0.002604166666667
         -0.041666666666667      -0.437500000000000      -0.437500000000000       0.002604166666667
         -0.041666666666667      -0.437500000000000      -0.312500000000000       0.002604166666667
         -0.041666666666667      -0.437500000000000      -0.187500000000000       0.002604166666667
         -0.041666666666667      -0.437500000000000      -0.062500000000000       0.002604166666667
         -0.041666666666667      -0.437500000000000       0.062500000000000       0.002604166666667
         -0.041666666666667      -0.437500000000000       0.187500000000000       0.002604166666667
         -0.041666666666667      -0.437500000000000       0.312500000000000       0.002604166666667
         -0.041666666666667      -0.437500000000000       0.437500000000000       0.002604166666667
         -0.041666666666667      -0.312500000000000      -0.437500000000000       0.002604166666667
         -0.041666666666667      -0.312500000000000      -0.187500000000000       0.002604166666667
         -0.041666666666667      -0.312500000000000      -0.062500000000000       0.002604166666667
         -0.041666666666667      -0.312500000000000       0.062500000000000       0.002604166666667
         -0.041666666666667      -0.312500000000000       0.187500000000000       0.002604166666667
         -0.041666666666667      -0.312500000000000       0.312500000000000       0.002604166666667
         -0.041666666666667      -0.312500000000000       0.437500000000000       0.002604166666667
         -0.041666666666667      -0.187500000000000      -0.437500000000000       0.002604166666667
         -0.041666666666667      -0.187500000000000      -0.312500000000000       0.002604166666667
         -0.041666666666667      -0.187500000000000      -0.187500000000000       0.002604166666667
         -0.041666666666667      -0.187500000000000      -0.062500000000000       0.002604166666667
         -0.041666666666667      -0.187500000000000       0.062500000000000       0.002604166666667
         -0.041666666666667      -0.187500000000000       0.187500000000000       0.002604166666667
         -0.041666666666667      -0.187500000000000       0.312500000000000       0.002604166666667
         -0.041666666666667      -0.187500000000000       0.437500000000000       0.002604166666667
         -0.041666666666667      -0.062500000000000      -0.437500000000000       0.002604166666667
         -0.041666666666667      -0.062500000000000      -0.312500000000000       0.002604166666667
         -0.041666666666667      -0.062500000000000      -0.187500000000000       0.002604166666667
         -0.041666666666667      -0.062500000000000      -0.062500000000000       0.002604166666667
         -0.041666666666667      -0.062500000000000       0.062500000000000       0.002604166666667
         -0.041666666666667      -0.062500000000000       0.187500000000000       0.002604166666667
         -0.041666666666667      -0.062500000000000       0.312500000000000       0.002604166666667
         -0.041666666666667      -0.062500000000000       0.437500000000000       0.002604166666667
         -0.041666666666667       0.062500000000000      -0.437500000000000       0.002604166666667
         -0.041666666666667       0.062500000000000      -0.312500000000000       0.002604166666667
         -0.041666666666667       0.062500000000000      -0.187500000000000       0.002604166666667
         -0.041666666666667       0.062500000000000      -0.062500000000000       0.002604166666667
         -0.041666666666667       0.062500000000000       0.062500000000000       0.002604166666667
         -0.041666666666667       0.062500000000000       0.187500000000000       0.002604166666667
         -0.041666666666667       0.062500000000000       0.312500000000000       0.002604166666667
         -0.041666666666667       0.062500000000000       0.437500000000000       0.002604166666667
         -0.041666666666667       0.187500000000000      -0.437500000000000       0.002604166666667
         -0.041666666666667       0.187500000000000      -0.312500000000000       0.002604166666667
         -0.041666666666667       0.187500000000000      -0.187500000000000       0.002604166666667
         -0.041666666666667       0.187500000000000      -0.062500000000000       0.002604166666667
         -0.041666666666667       0.187500000000000       0.062500000000000       0.002604166666667
         -0.041666666666667       0.187500000000000       0.187500000000000       0.002604166666667
         -0.041666666666667       0.187500000000000       0.312500000000000       0.002604166666667
         -0.041666666666667       0.187500000000000       0.437500000000000       0.002604166666667
         -0.041666666666667       0.312500000000000      -0.437500000000000       0.002604166666667
         -0.041666666666667       0.312500000000000      -0.312500000000000       0.002604166666667
         -0.041666666666667       0.312500000000000      -0.187500000000000       0.002604166666667
         -0.041666666666667       0.312500000000000      -0.062500000000000       0.002604166666667
         -0.041666666666667       0.312500000000000       0.062500000000000       0.002604166666667
         -0.041666666666667       0.312500000000000       0.187500000000000       0.002604166666667
         -0.041666666666667       0.312500000000000       0.312500000000000       0.002604166666667
         -0.041666666666667       0.312500000000000       0.437500000000000       0.002604166666667
         -0.041666666666667       0.437500000000000      -0.437500000000000       0.002604166666667
         -0.041666666666667       0.437500000000000      -0.312500000000000       0.002604166666667
         -0.041666666666667       0.437500000000000      -0.187500000000000       0.002604166666667
         -0.041666666666667       0.437500000000000      -0.062500000000000       0.002604166666667
         -0.041666666666667       0.437500000000000       0.062500000000000       0.002604166666667
         -0.041666666666667       0.437500000000000       0.187500000000000       0.002604166666667
         -0.041666666666667       0.437500000000000       0.312500000000000       0.002604166666667
          0.041666666666667      -0.437500000000000      -0.437500000000000       0.002604166666667
          0.041666666666667       0.312500000000000       0.312500000000000       0.002604166666667
          0.125000000000000       0.437500000000000       0.437500000000000       0.002604166666667
          0.208333333333333      -0.437500000000000      -0.312500000000000       0.002604166666667
          0.208333333333333      -0.437500000000000      -0.187500000000000       0.002604166666667
          0.208333333333333      -0.437500000000000      -0.062500000000000       0.002604166666667
          0.208333333333333      -0.437500000000000       0.062500000000000       0.002604166666667
          0.208333333333333      -0.437500000000000       0.187500000000000       0.002604166666667
          0.208333333333333      -0.437500000000000       0.312500000000000       0.002604166666667
          0.208333333333333      -0.312500000000000      -0.437500000000000       0.002604166666667
          0.208333333333333      -0.312500000000000      -0.312500000000000       0.002604166666667
          0.208333333333333      -0.312500000000000      -0.187500000000000       0.002604166666667
          0.208333333333333      -0.312500000000000      -0.062500000000000       0.002604166666667
          0.208333333333333      -0.312500000000000       0.062500000000000       0.002604166666667
          0.208333333333333      -0.312500000000000       0.187500000000000       0.002604166666667
          0.208333333333333      -0.312500000000000       0.312500000000000       0.002604166666667
          0.208333333333333      -0.312500000000000       0.437500000000000       0.002604166666667
          0.208333333333333      -0.187500000000000      -0.437500000000000       0.002604166666667
          0.208333333333333      -0.187500000000000      -0.312500000000000       0.002604166666667
          0.208333333333333      -0.187500000000000      -0.187500000000000       0.002604166666667
          0.208333333333333      -0.187500000000000      -0.062500000000000       0.002604166666667
          0.208333333333333      -0.187500000000000       0.062500000000000       0.002604166666667
          0.208333333333333      -0.187500000000000       0.187500000000000       0.002604166666667
          0.208333333333333      -0.187500000000000       0.312500000000000       0.002604166666667
          0.208333333333333      -0.187500000000000       0.437500000000000       0.002604166666667
          0.208333333333333      -0.062500000000000      -0.437500000000000       0.002604166666667
          0.208333333333333      -0.062500000000000      -0.312500000000000       0.002604166666667
          0.208333333333333      -0.062500000000000      -0.187500000000000       0.002604166666667
          0.208333333333333      -0.062500000000000      -0.062500000000000       0.002604166666667
          0.208333333333333      -0.062500000000000       0.062500000000000       0.002604166666667
          0.208333333333333      -0.062500000000000       0.187500000000000       0.002604166666667
          0.208333333333333      -0.062500000000000       0.312500000000000       0.002604166666667
          0.208333333333333      -0.062500000000000       0.437500000000000       0.002604166666667
          0.208333333333333       0.062500000000000      -0.437500000000000       0.002604166666667
          0.208333333333333       0.062500000000000      -0.312500000000000       0.002604166666667
          0.208333333333333       0.062500000000000      -0.187500000000000       0.002604166666667
          0.208333333333333       0.062500000000000      -0.062500000000000       0.002604166666667
          0.208333333333333       0.062500000000000       0.062500000000000       0.002604166666667
          0.208333333333333       0.062500000000000       0.187500000000000       0.002604166666667
          0.208333333333333       0.062500000000000       0.312500000000000       0.002604166666667
          0.208333333333333       0.062500000000000       0.437500000000000       0.002604166666667
          0.208333333333333       0.187500000000000      -0.437500000000000       0.002604166666667
          0.208333333333333       0.187500000000000      -0.312500000000000       0.002604166666667
          0.208333333333333       0.187500000000000      -0.187500000000000       0.002604166666667
          0.208333333333333       0.187500000000000      -0.062500000000000       0.002604166666667
          0.208333333333333       0.187500000000000       0.062500000000000       0.002604166666667
          0.208333333333333       0.187500000000000       0.187500000000000       0.002604166666667
          0.208333333333333       0.187500000000000       0.312500000000000       0.002604166666667
          0.208333333333333       0.187500000000000       0.437500000000000       0.002604166666667
          0.208333333333333       0.312500000000000      -0.437500000000000       0.002604166666667
          0.208333333333333       0.312500000000000      -0.312500000000000       0.002604166666667
          0.208333333333333       0.312500000000000      -0.187500000000000       0.002604166666667
          0.208333333333333       0.312500000000000      -0.062500000000000       0.002604166666667
          0.208333333333333       0.312500000000000       0.062500000000000       0.002604166666667
          0.208333333333333       0.312500000000000       0.187500000000000       0.002604166666667
          0.208333333333333       0.312500000000000       0.312500000000000       0.002604166666667
          0.208333333333333       0.312500000000000       0.437500000000000       0.002604166666667
          0.208333333333333       0.437500000000000      -0.437500000000000       0.002604166666667
          0.208333333333333       0.437500000000000      -0.312500000000000       0.002604166666667
          0.208333333333333       0.437500000000000      -0.187500000000000       0.002604166666667
          0.208333333333333       0.437500000000000      -0.062500000000000       0.002604166666667
          0.208333333333333       0.437500000000000       0.062500000000000       0.002604166666667
          0.208333333333333       0.437500000000000       0.187500000000000       0.002604166666667
          0.208333333333333       0.437500000000000       0.312500000000000       0.002604166666667
          0.208333333333333       0.437500000000000       0.437500000000000       0.002604166666667
          0.291666666666667      -0.437500000000000      -0.437500000000000       0.002604166666667
          0.291666666666667      -0.437500000000000      -0.312500000000000       0.002604166666667
          0.291666666666667      -0.437500000000000      -0.187500000000000       0.002604166666667