# CELL file written 13:49:44 (GMT+1.0) 25th July 2018 from run castep

%BLOCK lattice_cart
   ANG
       2.96711300000000      -0.529820000000000E-02  -0.183330000000000E-02
      -1.42774000000000        4.01471730000000      -0.694340000000000E-02
      -1.45267860000000       -1.74793080000000        3.63921410000000    
%ENDBLOCK lattice_cart

%BLOCK positions_frac
   H              0.736302000000000       0.192998000000000       0.662106000000000
   H              0.349833333333333       0.738172000000000       0.692277777777778
   H              0.634057000000000       0.509496000000000       0.055495000000000
   H              0.255361000000000       0.767944444444444       0.160644444444445
   H              0.650166666666667       0.261828000000000       0.307722222222222
   H              0.263698000000000       0.807002000000000       0.337894000000000
   H              0.744639000000000       0.232055555555555       0.839355555555556
   H              0.186501000000000       0.060862000000000       0.891776000000000
   H              0.779745000000000       0.762174000000000       0.436770000000000
   H              0.813499000000000       0.939138000000000       0.108224000000000
   H              0.220255000000000       0.237826000000000       0.563230000000000
   H              0.789445000000000       0.595596000000000       0.758255555555556
   H              0.210555000000000       0.404404000000000       0.241744444444445
   H              0.365943000000000       0.490504000000000       0.944505000000000
   C              0.971861000000000       0.209837000000000       0.303588888888889
   C              0.028139000000000       0.790163000000000       0.696411111111111
%ENDBLOCK positions_frac

FIX_COM : true

%BLOCK species_gamma
   radsectesla
   H          267522128.0    
%ENDBLOCK species_gamma

%BLOCK species_pot
   H       1|0.6|13|15|17|10(qc=8)
   C       2|1.4|10|12|13|20:21(qc=7)
%ENDBLOCK species_pot

SYMMETRY_TOL :     0.015000

%BLOCK symmetry_ops
# Symm. op. 1       E
          1.000000000000000       0.000000000000000       0.000000000000000
          0.000000000000000       1.000000000000000       0.000000000000000
          0.000000000000000      -0.000000000000000       1.000000000000000
          0.000000000000000       0.000000000000000       0.000000000000000
# Symm. op. 2       I
         -1.000000000000000      -0.000000000000000      -0.000000000000000
         -0.000000000000000      -1.000000000000000      -0.000000000000000
         -0.000000000000000       0.000000000000000      -1.000000000000000
          0.000000000000000       0.000000000000000       0.000000000000000
%ENDBLOCK symmetry_ops

%BLOCK kpoint_list
         -0.454545454545455      -0.428571428571429      -0.428571428571429       0.003710575139147
         -0.454545454545455      -0.428571428571429      -0.285714285714286       0.003710575139147
         -0.454545454545455      -0.428571428571429       0.000000000000000       0.003710575139147
         -0.454545454545455      -0.285714285714286      -0.285714285714286       0.003710575139147
         -0.454545454545455      -0.285714285714286       0.000000000000000       0.003710575139147
         -0.454545454545455      -0.285714285714286       0.428571428571429       0.003710575139147
         -0.454545454545455      -0.142857142857143      -0.428571428571429       0.003710575139147
         -0.454545454545455      -0.142857142857143      -0.142857142857143       0.003710575139147
         -0.454545454545455      -0.142857142857143       0.142857142857143       0.003710575139147
         -0.454545454545455      -0.142857142857143       0.285714285714286       0.003710575139147
         -0.454545454545455       0.000000000000000       0.000000000000000       0.003710575139147
         -0.454545454545455       0.000000000000000       0.142857142857143       0.003710575139147
         -0.454545454545455       0.000000000000000       0.285714285714286       0.003710575139147
         -0.454545454545455       0.000000000000000       0.428571428571429       0.003710575139147
         -0.454545454545455       0.142857142857143       0.000000000000000       0.003710575139147
         -0.454545454545455       0.142857142857143       0.142857142857143       0.003710575139147
         -0.454545454545455       0.142857142857143       0.285714285714286       0.003710575139147
         -0.454545454545455       0.285714285714286      -0.285714285714286       0.003710575139147
         -0.454545454545455       0.285714285714286      -0.142857142857143       0.003710575139147
         -0.454545454545455       0.285714285714286       0.142857142857143       0.003710575139147
         -0.454545454545455       0.285714285714286       0.285714285714286       0.003710575139147
         -0.454545454545455       0.428571428571429      -0.142857142857143       0.003710575139147
         -0.454545454545455       0.428571428571429       0.000000000000000       0.003710575139147
         -0.454545454545455       0.428571428571429       0.142857142857143       0.003710575139147
         -0.363636363636364      -0.428571428571429       0.000000000000000       0.003710575139147
         -0.363636363636364      -0.428571428571429       0.285714285714286       0.003710575139147
         -0.363636363636364      -0.428571428571429       0.428571428571429       0.003710575139147
         -0.363636363636364      -0.285714285714286      -0.285714285714286       0.003710575139147
         -0.363636363636364      -0.285714285714286       0.000000000000000       0.003710575139147
         -0.363636363636364      -0.285714285714286       0.285714285714286       0.003710575139147
         -0.363636363636364      -0.142857142857143      -0.428571428571429       0.003710575139147
         -0.363636363636364      -0.142857142857143      -0.142857142857143       0.003710575139147
         -0.363636363636364      -0.142857142857143       0.000000000000000       0.003710575139147
         -0.363636363636364      -0.142857142857143       0.142857142857143       0.003710575139147
         -0.363636363636364      -0.142857142857143       0.285714285714286       0.003710575139147
         -0.363636363636364      -0.142857142857143       0.428571428571429       0.003710575139147
         -0.363636363636364       0.000000000000000      -0.428571428571429       0.003710575139147
         -0.363636363636364       0.000000000000000      -0.285714285714286       0.003710575139147
         -0.363636363636364       0.000000000000000       0.000000000000000       0.003710575139147
         -0.363636363636364       0.000000000000000       0.142857142857143       0.003710575139147
         -0.363636363636364       0.000000000000000       0.285714285714286       0.003710575139147
         -0.363636363636364       0.000000000000000       0.428571428571429       0.003710575139147
         -0.363636363636364       0.142857142857143      -0.428571428571429       0.003710575139147
         -0.363636363636364       0.142857142857143      -0.142857142857143       0.003710575139147
         -0.363636363636364       0.142857142857143       0.000000000000000       0.003710575139147
         -0.363636363636364       0.142857142857143       0.142857142857143       0.003710575139147
         -0.363636363636364       0.142857142857143       0.285714285714286       0.003710575139147
         -0.363636363636364       0.142857142857143       0.428571428571429       0.003710575139147
         -0.363636363636364       0.285714285714286      -0.285714285714286       0.003710575139147
         -0.363636363636364       0.285714285714286      -0.142857142857143       0.003710575139147
         -0.363636363636364       0.285714285714286       0.000000000000000       0.003710575139147
         -0.363636363636364       0.285714285714286       0.142857142857143       0.003710575139147
         -0.363636363636364       0.285714285714286       0.285714285714286       0.003710575139147
         -0.363636363636364       0.428571428571429      -0.142857142857143       0.003710575139147
         -0.363636363636364       0.428571428571429       0.000000000000000       0.003710575139147
         -0.363636363636364       0.428571428571429       0.142857142857143       0.003710575139147
         -0.363636363636364       0.428571428571429       0.285714285714286       0.003710575139147
         -0.272727272727273      -0.428571428571429      -0.285714285714286       0.003710575139147
         -0.272727272727273      -0.428571428571429      -0.142857142857143       0.003710575139147
         -0.272727272727273      -0.428571428571429       0.142857142857143       0.003710575139147
         -0.272727272727273      -0.285714285714286      -0.428571428571429       0.003710575139147
         -0.272727272727273      -0.285714285714286       0.000000000000000       0.003710575139147
         -0.272727272727273      -0.142857142857143      -0.142857142857143       0.003710575139147
         -0.272727272727273       0.142857142857143      -0.285714285714286       0.003710575139147
         -0.272727272727273       0.142857142857143      -0.142857142857143       0.003710575139147
         -0.272727272727273       0.142857142857143       0.000000000000000       0.003710575139147
         -0.272727272727273       0.142857142857143       0.142857142857143       0.003710575139147
         -0.272727272727273       0.142857142857143       0.285714285714286       0.003710575139147
         -0.272727272727273       0.142857142857143       0.428571428571429       0.003710575139147
         -0.272727272727273       0.285714285714286      -0.428571428571429       0.003710575139147
         -0.272727272727273       0.285714285714286      -0.285714285714286       0.003710575139147
         -0.272727272727273       0.285714285714286      -0.142857142857143       0.003710575139147
         -0.272727272727273       0.285714285714286       0.000000000000000       0.003710575139147
         -0.272727272727273       0.285714285714286       0.142857142857143       0.003710575139147
         -0.272727272727273       0.285714285714286       0.285714285714286       0.003710575139147
         -0.272727272727273       0.285714285714286       0.428571428571429       0.003710575139147
         -0.272727272727273       0.428571428571429      -0.428571428571429       0.003710575139147
         -0.272727272727273       0.428571428571429      -0.285714285714286       0.003710575139147
         -0.272727272727273       0.428571428571429      -0.142857142857143       0.003710575139147
         -0.272727272727273       0.428571428571429       0.000000000000000       0.003710575139147
         -0.272727272727273       0.428571428571429       0.142857142857143       0.003710575139147
         -0.272727272727273       0.428571428571429       0.285714285714286       0.003710575139147
         -0.272727272727273       0.428571428571429       0.428571428571429       0.003710575139147
         -0.181818181818182      -0.428571428571429      -0.428571428571429       0.003710575139147
         -0.181818181818182      -0.428571428571429      -0.285714285714286       0.003710575139147
         -0.181818181818182      -0.428571428571429      -0.142857142857143       0.003710575139147
         -0.181818181818182      -0.428571428571429       0.000000000000000       0.003710575139147
         -0.181818181818182      -0.428571428571429       0.142857142857143       0.003710575139147
         -0.181818181818182      -0.428571428571429       0.285714285714286       0.003710575139147
         -0.181818181818182      -0.428571428571429       0.428571428571429       0.003710575139147
         -0.181818181818182      -0.285714285714286      -0.428571428571429       0.003710575139147
         -0.181818181818182      -0.285714285714286      -0.285714285714286       0.003710575139147
         -0.181818181818182      -0.285714285714286      -0.142857142857143       0.003710575139147
         -0.181818181818182      -0.285714285714286       0.000000000000000       0.003710575139147
         -0.181818181818182      -0.285714285714286       0.142857142857143       0.003710575139147
         -0.181818181818182      -0.285714285714286       0.285714285714286       0.003710575139147
         -0.181818181818182      -0.285714285714286       0.428571428571429       0.003710575139147
         -0.181818181818182      -0.142857142857143      -0.428571428571429       0.003710575139147
         -0.181818181818182      -0.142857142857143      -0.142857142857143       0.003710575139147
         -0.181818181818182      -0.142857142857143       0.000000000000000       0.003710575139147
         -0.181818181818182      -0.142857142857143       0.142857142857143       0.003710575139147
         -0.181818181818182      -0.142857142857143       0.285714285714286       0.003710575139147
         -0.181818181818182      -0.142857142857143       0.428571428571429       0.003710575139147
         -0.181818181818182       0.000000000000000      -0.428571428571429       0.003710575139147
         -0.181818181818182       0.000000000000000      -0.285714285714286       0.003710575139147
         -0.181818181818182       0.000000000000000      -0.142857142857143       0.003710575139147
         -0.181818181818182       0.000000000000000       0.000000000000000       0.003710575139147
         -0.181818181818182       0.000000000000000       0.142857142857143       0.003710575139147
         -0.181818181818182       0.000000000000000       0.285714285714286       0.003710575139147
         -0.181818181818182       0.000000000000000       0.428571428571429       0.003710575139147
         -0.181818181818182       0.142857142857143      -0.428571428571429       0.003710575139147
         -0.181818181818182       0.142857142857143      -0.285714285714286       0.003710575139147
         -0.181818181818182       0.142857142857143      -0.142857142857143       0.003710575139147
         -0.181818181818182       0.142857142857143       0.000000000000000       0.003710575139147
         -0.181818181818182       0.428571428571429       0.428571428571429       0.003710575139147
          0.000000000000000      -0.285714285714286       0.000000000000000       0.003710575139147
          0.000000000000000      -0.285714285714286       0.142857142857143       0.003710575139147
          0.000000000000000      -0.285714285714286       0.285714285714286       0.003710575139147
          0.000000000000000      -0.285714285714286       0.428571428571429       0.003710575139147
          0.000000000000000      -0.142857142857143      -0.428571428571429       0.003710575139147
          0.000000000000000      -0.142857142857143      -0.285714285714286       0.003710575139147
          0.000000000000000      -0.142857142857143      -0.142857142857143       0.003710575139147
          0.000000000000000      -0.142857142857143       0.000000000000000       0.003710575139147
          0.000000000000000      -0.142857142857143       0.142857142857143       0.003710575139147
          0.000000000000000      -0.142857142857143       0.285714285714286       0.003710575139147
          0.000000000000000      -0.142857142857143       0.428571428571429       0.003710575139147
          0.000000000000000       0.000000000000000      -0.428571428571429       0.003710575139147
          0.000000000000000       0.000000000000000      -0.285714285714286       0.003710575139147
          0.000000000000000       0.000000000000000      -0.142857142857143       0.003710575139147
          0.000000000000000       0.000000000000000       0.000000000000000       0.001855287569573
          0.000000000000000       0.285714285714286       0.142857142857143       0.003710575139147
          0.000000000000000       0.285714285714286       0.285714285714286       0.003710575139147
          0.000000000000000       0.285714285714286       0.428571428571429       0.003710575139147
          0.000000000000000       0.428571428571429      -0.428571428571429       0.003710575139147
          0.000000000000000       0.428571428571429      -0.285714285714286       0.003710575139147
          0.000000000000000       0.428571428571429      -0.142857142857143       0.003710575139147
          0.000000000000000       0.428571428571429       0.000000000000000       0.003710575139147
          0.000000000000000       0.428571428571429       0.142857142857143       0.003710575139147
          0.000000000000000       0.428571428571429       0.285714285714286       0.003710575139147
          0.000000000000000       0.428571428571429       0.428571428571429       0.003710575139147
          0.090909090909091      -0.428571428571429      -0.428571428571429       0.003710575139147
          0.090909090909091      -0.428571428571429      -0.285714285714286       0.003710575139147
          0.090909090909091      -0.428571428571429      -0.142857142857143       0.003710575139147
          0.090909090909091      -0.428571428571429       0.000000000000000       0.003710575139147
          0.090909090909091      -0.428571428571429       0.142857142857143       0.003710575139147
          0.090909090909091      -0.428571428571429       0.285714285714286       0.003710575139147
          0.090909090909091      -0.428571428571429       0.428571428571429       0.003710575139147
          0.090909090909091      -0.285714285714286      -0.428571428571429       0.003710575139147
          0.090909090909091      -0.285714285714286      -0.285714285714286       0.003710575139147
          0.090909090909091      -0.285714285714286      -0.142857142857143       0.003710575139147
          0.090909090909091      -0.285714285714286       0.000000000000000       0.003710575139147
          0.090909090909091      -0.285714285714286       0.142857142857143       0.003710575139147
          0.090909090909091      -0.285714285714286       0.285714285714286       0.003710575139147
          0.090909090909091      -0.285714285714286       0.428571428571429       0.003710575139147
          0.090909090909091      -0.142857142857143      -0.428571428571429       0.003710575139147
          0.090909090909091      -0.142857142857143      -0.285714285714286       0.003710575139147
          0.090909090909091      -0.142857142857143      -0.142857142857143       0.003710575139147
          0.090909090909091      -0.142857142857143       0.000000000000000       0.003710575139147
          0.090909090909091      -0.142857142857143       0.142857142857143       0.003710575139147
          0.090909090909091      -0.142857142857143       0.285714285714286       0.003710575139147
          0.090909090909091      -0.142857142857143       0.428571428571429       0.003710575139147
          0.090909090909091       0.000000000000000      -0.428571428571429       0.003710575139147
          0.090909090909091       0.000000000000000      -0.285714285714286       0.003710575139147
          0.090909090909091       0.000000000000000      -0.142857142857143       0.003710575139147
          0.090909090909091       0.000000000000000       0.000000000000000       0.003710575139147
          0.090909090909091       0.000000000000000       0.142857142857143       0.003710575139147
          0.090909090909091       0.000000000000000       0.285714285714286       0.003710575139147
          0.090909090909091       0.000000000000000       0.428571428571429       0.003710575139147
          0.090909090909091       0.142857142857143      -0.428571428571429       0.003710575139147
          0.090909090909091       0.142857142857143      -0.285714285714286       0.003710575139147
          0.090909090909091       0.142857142857143      -0.142857142857143       0.003710575139147
          0.090909090909091       0.142857142857143       0.000000000000000       0.003710575139147
          0.090909090909091       0.142857142857143       0.142857142857143       0.003710575139147
          0.090909090909091       0.142857142857143       0.285714285714286       0.003710575139147
          0.090909090909091       0.142857142857143       0.428571428571429       0.003710575139147
          0.090909090909091       0.285714285714286      -0.428571428571429       0.003710575139147
          0.090909090909091       0.285714285714286      -0.285714285714286       0.003710575139147
          0.090909090909091       0.285714285714286      -0.142857142857143       0.003710575139147
          0.090909090909091       0.285714285714286       0.000000000000000       0.003710575139147
          0.090909090909091       0.285714285714286       0.142857142857143       0.003710575139147
          0.090909090909091       0.285714285714286       0.285714285714286       0.003710575139147
          0.090909090909091       0.285714285714286       0.428571428571429       0.003710575139147
          0.090909090909091       0.428571428571429      -0.428571428571429       0.003710575139147
          0.090909090909091       0.428571428571429      -0.285714285714286       0.003710575139147
          0.090909090909091       0.428571428571429      -0.142857142857143       0.003710575139147
          0.090909090909091       0.428571428571429       0.000000000000000       0.003710575139147
          0.090909090909091       0.428571428571429       0.142857142857143       0.003710575139147
          0.090909090909091       0.428571428571429       0.285714285714286       0.003710575139147
          0.090909090909091       0.428571428571429       0.428571428571429       0.003710575139147
          0.181818181818182      -0.428571428571429      -0.285714285714286       0.003710575139147
          0.181818181818182      -0.428571428571429      -0.142857142857143       0.003710575139147
          0.181818181818182      -0.428571428571429       0.000000000000000       0.003710575139147
          0.181818181818182      -0.428571428571429       0.142857142857143       0.003710575139147
          0.181818181818182      -0.428571428571429       0.285714285714286       0.003710575139147
          0.181818181818182      -0.428571428571429       0.428571428571429       0.003710575139147
          0.181818181818182      -0.285714285714286      -0.428571428571429       0.003710575139147
          0.181818181818182      -0.285714285714286      -0.285714285714286       0.003710575139147
          0.181818181818182      -0.285714285714286      -0.142857142857143       0.003710575139147
          0.181818181818182      -0.285714285714286       0.000000000000000       0.003710575139147
          0.181818181818182      -0.285714285714286       0.142857142857143       0.003710575139147
          0.181818181818182      -0.285714285714286       0.285714285714286       0.003710575139147
          0.181818181818182      -0.285714285714286       0.428571428571429       0.003710575139147
          0.181818181818182      -0.142857142857143      -0.428571428571429       0.003710575139147
          0.181818181818182      -0.142857142857143      -0.285714285714286       0.003710575139147
          0.181818181818182      -0.142857142857143      -0.142857142857143       0.003710575139147
          0.181818181818182       0.142857142857143       0.285714285714286       0.003710575139147
          0.272727272727273      -0.142857142857143       0.428571428571429       0.003710575139147
          0.272727272727273       0.000000000000000      -0.428571428571429       0.003710575139147
          0.272727272727273       0.000000000000000      -0.285714285714286       0.003710575139147
          0.272727272727273       0.000000000000000      -0.142857142857143       0.003710575139147
          0.272727272727273       0.000000000000000       0.000000000000000       0.003710575139147
          0.272727272727273       0.000000000000000       0.142857142857143       0.003710575139147
          0.272727272727273       0.000000000000000       0.285714285714286       0.003710575139147
          0.272727272727273       0.000000000000000       0.428571428571429       0.003710575139147
          0.272727272727273       0.142857142857143      -0.428571428571429       0.003710575139147
          0.272727272727273       0.142857142857143      -0.285714285714286       0.003710575139147
          0.272727272727273       0.142857142857143      -0.142857142857143       0.003710575139147
          0.272727272727273       0.142857142857143       0.000000000000000       0.003710575139147
          0.272727272727273       0.142857142857143       0.285714285714286       0.003710575139147
          0.272727272727273       0.142857142857143       0.428571428571429       0.003710575139147
          0.272727272727273       0.285714285714286      -0.428571428571429       0.003710575139147
          0.272727272727273       0.285714285714286      -0.285714285714286       0.003710575139147
          0.272727272727273       0.285714285714286      -0.142857142857143       0.003710575139147
          0.272727272727273       0.285714285714286       0.142857142857143       0.003710575139147
          0.272727272727273       0.285714285714286       0.285714285714286       0.003710575139147
          0.272727272727273       0.428571428571429      -0.428571428571429       0.003710575139147
          0.272727272727273       0.428571428571429      -0.285714285714286       0.003710575139147
          0.272727272727273       0.428571428571429       0.000000000000000       0.003710575139147
          0.272727272727273       0.428571428571429       0.428571428571429       0.003710575139147
          0.363636363636364      -0.428571428571429      -0.428571428571429       0.003710575139147
          0.363636363636364      -0.428571428571429       0.285714285714286       0.003710575139147
          0.363636363636364      -0.428571428571429       0.428571428571429       0.003710575139147
          0.363636363636364      -0.285714285714286      -0.428571428571429       0.003710575139147
          0.363636363636364      -0.285714285714286       0.428571428571429       0.003710575139147
          0.363636363636364      -0.142857142857143       0.285714285714286       0.003710575139147
          0.363636363636364       0.000000000000000       0.142857142857143       0.003710575139147
          0.363636363636364       0.142857142857143       0.285714285714286       0.003710575139147
          0.363636363636364       0.285714285714286      -0.428571428571429       0.003710575139147
          0.363636363636364       0.285714285714286      -0.142857142857143       0.003710575139147
          0.363636363636364       0.285714285714286       0.142857142857143       0.003710575139147
          0.363636363636364       0.285714285714286       0.428571428571429       0.003710575139147
          0.363636363636364       0.428571428571429      -0.142857142857143       0.003710575139147
          0.363636363636364       0.428571428571429       0.142857142857143       0.003710575139147
          0.363636363636364       0.428571428571429       0.285714285714286       0.003710575139147
          0.363636363636364       0.428571428571429       0.428571428571429       0.003710575139147
          0.454545454545455      -0.428571428571429      -0.428571428571429       0.003710575139147
          0.454545454545455      -0.428571428571429      -0.285714285714286       0.003710575139147
          0.454545454545455      -0.428571428571429       0.285714285714286       0.003710575139147
          0.454545454545455      -0.428571428571429       0.428571428571429       0.003710575139147
          0.454545454545455      -0.285714285714286      -0.428571428571429       0.003710575139147
          0.454545454545455      -0.285714285714286       0.000000000000000       0.003710575139147
          0.454545454545455      -0.285714285714286       0.428571428571429       0.003710575139147
          0.454545454545455      -0.142857142857143      -0.428571428571429       0.003710575139147
          0.454545454545455      -0.142857142857143       0.142857142857143       0.003710575139147
          0.454545454545455      -0.142857142857143       0.285714285714286       0.003710575139147
          0.454545454545455      -0.142857142857143       0.428571428571429       0.003710575139147
          0.454545454545455       0.000000000000000       0.142857142857143       0.003710575139147
          0.454545454545455       0.000000000000000       0.285714285714286       0.003710575139147
          0.454545454545455       0.000000000000000       0.428571428571429       0.003710575139147
          0.454545454545455       0.142857142857143      -0.428571428571429       0.003710575139147
          0.454545454545455       0.142857142857143       0.000000000000000       0.003710575139147
          0.454545454545455       0.142857142857143       0.285714285714286       0.003710575139147
          0.454545454545455       0.285714285714286      -0.285714285714286       0.003710575139147
          0.454545454545455       0.285714285714286      -0.142857142857143       0.003710575139147
          0.454545454545455       0.285714285714286       0.142857142857143       0.003710575139147
          0.454545454545455       0.285714285714286       0.428571428571429       0.003710575139147
          0.454545454545455       0.428571428571429      -0.428571428571429       0.003710575139147
          0.454545454545455       0.428571428571429      -0.285714285714286       0.003710575139147
          0.454545454545455       0.428571428571429      -0.142857142857143       0.003710575139147
          0.454545454545455       0.428571428571429       0.142857142857143       0.003710575139147
%ENDBLOCK kpoint_list

%BLOCK bs_kpoint_list
         -0.454545454545455      -0.428571428571429      -0.428571428571429       0.003710575139147
         -0.454545454545455      -0.428571428571429      -0.285714285714286       0.003710575139147