# CELL file written 17:20:00 (GMT+1.0) 2nd October 2018 from run castep

%BLOCK lattice_cart
   ANG
       4.52137769507349       0.253976707478871E-02   0.880565638270884E-03
     -0.278567355830250E-02    4.56013737168228       0.745579102034766E-02
     -0.239913027373033E-02    2.14392383316649        5.50932339657615    
%ENDBLOCK lattice_cart

%BLOCK positions_frac
   H              0.380492591293128       0.507968256221232       0.498906228947126
   H              0.432392646819266       0.791263197440080       0.036825106027151
   H              0.374167164458144       0.580171573586616       0.784330725833055
   H              0.832776757099583       0.172867330223078       0.143196554098554
   H              0.613815624742208       0.791310506788524       0.536789321485846
   H              0.067334908092502       0.413594560834274       0.961439968106075
   H              0.978891490390831       0.413623017316083       0.461306501485114
   H              0.521568746086811       0.983582243054309       0.233163744728083
   H              0.213594422143050       0.172824689077761       0.643151335860167
   H              0.202550171594470       0.950496656407930       0.479047172006097
   H              0.843463681205291       0.950827387091281       0.978924655975911
   H              0.665376661118200       0.507699841894396      -0.001050025184123
   H              0.650595319939317       0.372846082145090       0.656271284559667
   H              0.332581528244068       0.438947945818335       0.242101166098538
   H              0.895393691722984       0.239045939040574       0.228921649469904
   H              0.150805236192587       0.239128705173156       0.728741280143323
   H              0.171922326882641       0.031691406188686       0.100858509955188
   H              0.880770706176735       0.104160457351270       0.886263643571620
   H              0.932312762263084       0.820563706628494       0.348423992740589
   H              0.713204834629178       0.438931036248005       0.742064007208170
   H              0.874250573401106       0.031876625053995       0.600723295154151
   H              0.165536871296311       0.103889376970472       0.386315850332941
   H              0.671834208840362       0.579982755586239       0.284447362158814
   H              0.478786336860365       0.198209779805815       0.923856644894010
   H              0.524772447349328       0.983387330801117       0.733297575120800
   H              0.702661481069474       0.661078013862558       0.906312967940154
   H              0.113616563718995       0.820605725103821       0.848387310697992
   H              0.021413111476020       0.628372994240369       0.151950418577541
   H              0.567155414112565       0.198183372721510       0.423988283913376
   H              0.343493907408650       0.661362070798295       0.406184451068442
   H              0.395383891165410       0.372772354734037       0.156446229599568
   H              0.024418725471945       0.628153346343307       0.652087698221433
   C              0.645581535061854       1.001437098080116       0.573792617530718
   C              0.145481428035630       0.610383391440963       0.811463723934770
   C              0.900514640992670       0.610387501177635       0.311436694784137
   C              0.400584259311906       1.001433724750579       0.073772052955100
%ENDBLOCK positions_frac

FIX_COM : true

%BLOCK species_gamma
   radsectesla
   H          267522128.0    
%ENDBLOCK species_gamma

%BLOCK species_pot
   H       1|0.6|13|15|17|10(qc=8)[]
   C       2|1.4|10|12|13|20:21(qc=7)[]
%ENDBLOCK species_pot

SYMMETRY_TOL :     0.001000

%BLOCK symmetry_ops
# Symm. op. 1       E
          1.000000000000000       0.000000000000000       0.000000000000000
          0.000000000000000       1.000000000000000       0.000000000000000
          0.000000000000000       0.000000000000000       1.000000000000000
          0.000000000000000       0.000000000000000       0.000000000000000
%ENDBLOCK symmetry_ops

%BLOCK kpoint_list
         -0.416666666666667      -0.428571428571429      -0.400000000000000       0.009523809523810
         -0.416666666666667      -0.428571428571429      -0.200000000000000       0.009523809523810
         -0.416666666666667      -0.428571428571429       0.200000000000000       0.009523809523810
         -0.416666666666667      -0.285714285714286      -0.400000000000000       0.009523809523810
         -0.416666666666667      -0.285714285714286       0.000000000000000       0.009523809523810
         -0.416666666666667      -0.285714285714286       0.200000000000000       0.009523809523810
         -0.416666666666667      -0.142857142857143       0.400000000000000       0.009523809523810
         -0.416666666666667       0.000000000000000      -0.400000000000000       0.009523809523810
         -0.416666666666667       0.000000000000000      -0.200000000000000       0.009523809523810
         -0.416666666666667       0.000000000000000       0.000000000000000       0.009523809523810
         -0.416666666666667       0.000000000000000       0.200000000000000       0.009523809523810
         -0.416666666666667       0.142857142857143      -0.400000000000000       0.009523809523810
         -0.416666666666667       0.142857142857143       0.000000000000000       0.009523809523810
         -0.416666666666667       0.285714285714286      -0.400000000000000       0.009523809523810
         -0.416666666666667       0.285714285714286      -0.200000000000000       0.009523809523810
         -0.416666666666667       0.285714285714286       0.000000000000000       0.009523809523810
         -0.416666666666667       0.285714285714286       0.400000000000000       0.009523809523810
         -0.416666666666667       0.428571428571429      -0.400000000000000       0.009523809523810
         -0.416666666666667       0.428571428571429      -0.200000000000000       0.009523809523810
         -0.250000000000000      -0.428571428571429      -0.200000000000000       0.009523809523810
         -0.250000000000000      -0.428571428571429       0.000000000000000       0.009523809523810
         -0.250000000000000      -0.428571428571429       0.200000000000000       0.009523809523810
         -0.250000000000000      -0.428571428571429       0.400000000000000       0.009523809523810
         -0.250000000000000      -0.285714285714286      -0.400000000000000       0.009523809523810
         -0.250000000000000      -0.285714285714286      -0.200000000000000       0.009523809523810
         -0.250000000000000      -0.285714285714286       0.400000000000000       0.009523809523810
         -0.250000000000000       0.285714285714286       0.200000000000000       0.009523809523810
         -0.250000000000000       0.285714285714286       0.400000000000000       0.009523809523810
         -0.250000000000000       0.428571428571429      -0.400000000000000       0.009523809523810
         -0.250000000000000       0.428571428571429       0.000000000000000       0.009523809523810
         -0.250000000000000       0.428571428571429       0.200000000000000       0.009523809523810
         -0.250000000000000       0.428571428571429       0.400000000000000       0.009523809523810
         -0.083333333333333      -0.428571428571429       0.400000000000000       0.009523809523810
         -0.083333333333333      -0.142857142857143       0.200000000000000       0.009523809523810
         -0.083333333333333      -0.142857142857143       0.400000000000000       0.009523809523810
         -0.083333333333333       0.000000000000000      -0.400000000000000       0.009523809523810
         -0.083333333333333       0.000000000000000      -0.200000000000000       0.009523809523810
         -0.083333333333333       0.000000000000000       0.000000000000000       0.009523809523810
         -0.083333333333333       0.000000000000000       0.200000000000000       0.009523809523810
         -0.083333333333333       0.000000000000000       0.400000000000000       0.009523809523810
         -0.083333333333333       0.142857142857143      -0.400000000000000       0.009523809523810
         -0.083333333333333       0.142857142857143      -0.200000000000000       0.009523809523810
         -0.083333333333333       0.142857142857143       0.000000000000000       0.009523809523810
         -0.083333333333333       0.142857142857143       0.200000000000000       0.009523809523810
         -0.083333333333333       0.142857142857143       0.400000000000000       0.009523809523810
         -0.083333333333333       0.285714285714286      -0.400000000000000       0.009523809523810
         -0.083333333333333       0.285714285714286      -0.200000000000000       0.009523809523810
         -0.083333333333333       0.285714285714286       0.000000000000000       0.009523809523810
         -0.083333333333333       0.285714285714286       0.200000000000000       0.009523809523810
         -0.083333333333333       0.285714285714286       0.400000000000000       0.009523809523810
         -0.083333333333333       0.428571428571429       0.000000000000000       0.009523809523810
         -0.083333333333333       0.428571428571429       0.200000000000000       0.009523809523810
         -0.083333333333333       0.428571428571429       0.400000000000000       0.009523809523810
          0.083333333333333      -0.428571428571429       0.200000000000000       0.009523809523810
          0.083333333333333      -0.428571428571429       0.400000000000000       0.009523809523810
          0.083333333333333       0.142857142857143       0.000000000000000       0.009523809523810
          0.083333333333333       0.142857142857143       0.200000000000000       0.009523809523810
          0.083333333333333       0.142857142857143       0.400000000000000       0.009523809523810
          0.083333333333333       0.285714285714286      -0.400000000000000       0.009523809523810
          0.083333333333333       0.285714285714286      -0.200000000000000       0.009523809523810
          0.083333333333333       0.285714285714286       0.000000000000000       0.009523809523810
          0.083333333333333       0.285714285714286       0.200000000000000       0.009523809523810
          0.083333333333333       0.285714285714286       0.400000000000000       0.009523809523810
          0.083333333333333       0.428571428571429      -0.200000000000000       0.009523809523810
          0.083333333333333       0.428571428571429       0.000000000000000       0.009523809523810
          0.083333333333333       0.428571428571429       0.200000000000000       0.009523809523810
          0.083333333333333       0.428571428571429       0.400000000000000       0.009523809523810
          0.250000000000000      -0.428571428571429       0.200000000000000       0.009523809523810
          0.250000000000000      -0.285714285714286       0.000000000000000       0.009523809523810
          0.250000000000000      -0.285714285714286       0.200000000000000       0.009523809523810
          0.250000000000000      -0.285714285714286       0.400000000000000       0.009523809523810
          0.250000000000000      -0.142857142857143      -0.400000000000000       0.009523809523810
          0.250000000000000      -0.142857142857143      -0.200000000000000       0.009523809523810
          0.250000000000000      -0.142857142857143       0.000000000000000       0.009523809523810
          0.250000000000000      -0.142857142857143       0.200000000000000       0.009523809523810
          0.250000000000000      -0.142857142857143       0.400000000000000       0.009523809523810
          0.250000000000000       0.000000000000000      -0.400000000000000       0.009523809523810
          0.250000000000000       0.000000000000000      -0.200000000000000       0.009523809523810
          0.250000000000000       0.000000000000000       0.000000000000000       0.009523809523810
          0.250000000000000       0.000000000000000       0.200000000000000       0.009523809523810
          0.250000000000000       0.000000000000000       0.400000000000000       0.009523809523810
          0.250000000000000       0.142857142857143      -0.400000000000000       0.009523809523810
          0.250000000000000       0.142857142857143      -0.200000000000000       0.009523809523810
          0.250000000000000       0.142857142857143       0.000000000000000       0.009523809523810
          0.250000000000000       0.142857142857143       0.200000000000000       0.009523809523810
          0.250000000000000       0.142857142857143       0.400000000000000       0.009523809523810
          0.250000000000000       0.285714285714286      -0.200000000000000       0.009523809523810
          0.250000000000000       0.285714285714286       0.000000000000000       0.009523809523810
          0.250000000000000       0.428571428571429       0.400000000000000       0.009523809523810
          0.416666666666667      -0.428571428571429      -0.400000000000000       0.009523809523810
          0.416666666666667      -0.428571428571429      -0.200000000000000       0.009523809523810
          0.416666666666667      -0.428571428571429       0.000000000000000       0.009523809523810
          0.416666666666667      -0.285714285714286      -0.200000000000000       0.009523809523810
          0.416666666666667      -0.142857142857143      -0.400000000000000       0.009523809523810
          0.416666666666667      -0.142857142857143      -0.200000000000000       0.009523809523810
          0.416666666666667      -0.142857142857143       0.200000000000000       0.009523809523810
          0.416666666666667       0.000000000000000      -0.400000000000000       0.009523809523810
          0.416666666666667       0.142857142857143      -0.200000000000000       0.009523809523810
          0.416666666666667       0.142857142857143       0.000000000000000       0.009523809523810
          0.416666666666667       0.142857142857143       0.200000000000000       0.009523809523810
          0.416666666666667       0.142857142857143       0.400000000000000       0.009523809523810
          0.416666666666667       0.285714285714286      -0.400000000000000       0.009523809523810
          0.416666666666667       0.285714285714286       0.200000000000000       0.009523809523810
          0.416666666666667       0.428571428571429      -0.400000000000000       0.009523809523810
          0.416666666666667       0.428571428571429       0.000000000000000       0.009523809523810
%ENDBLOCK kpoint_list

%BLOCK bs_kpoint_list
         -0.416666666666667      -0.428571428571429      -0.400000000000000       0.009523809523810
         -0.416666666666667      -0.428571428571429      -0.200000000000000       0.009523809523810
         -0.416666666666667      -0.428571428571429       0.200000000000000       0.009523809523810
         -0.416666666666667      -0.285714285714286      -0.400000000000000       0.009523809523810
         -0.416666666666667      -0.285714285714286       0.000000000000000       0.009523809523810
         -0.416666666666667      -0.285714285714286       0.200000000000000       0.009523809523810
         -0.416666666666667      -0.142857142857143       0.400000000000000       0.009523809523810
         -0.416666666666667       0.000000000000000      -0.400000000000000       0.009523809523810
         -0.416666666666667       0.000000000000000      -0.200000000000000       0.009523809523810
         -0.416666666666667       0.000000000000000       0.000000000000000       0.009523809523810
         -0.416666666666667       0.000000000000000       0.200000000000000       0.009523809523810
         -0.416666666666667       0.142857142857143      -0.400000000000000       0.009523809523810
         -0.416666666666667       0.142857142857143       0.000000000000000       0.009523809523810
         -0.416666666666667       0.285714285714286      -0.400000000000000       0.009523809523810
         -0.416666666666667       0.285714285714286      -0.200000000000000       0.009523809523810
         -0.416666666666667       0.285714285714286       0.000000000000000       0.009523809523810
         -0.416666666666667       0.285714285714286       0.400000000000000       0.009523809523810
         -0.416666666666667       0.428571428571429      -0.400000000000000       0.009523809523810
         -0.416666666666667       0.428571428571429      -0.200000000000000       0.009523809523810
         -0.250000000000000      -0.428571428571429      -0.200000000000000       0.009523809523810
         -0.250000000000000      -0.428571428571429       0.000000000000000       0.009523809523810
         -0.250000000000000      -0.428571428571429       0.200000000000000       0.009523809523810
         -0.250000000000000      -0.428571428571429       0.400000000000000       0.009523809523810
         -0.250000000000000      -0.285714285714286      -0.400000000000000       0.009523809523810
         -0.250000000000000      -0.285714285714286      -0.200000000000000       0.009523809523810
         -0.250000000000000      -0.285714285714286       0.400000000000000       0.009523809523810
         -0.250000000000000       0.285714285714286       0.200000000000000       0.009523809523810
         -0.250000000000000       0.285714285714286       0.400000000000000       0.009523809523810
         -0.250000000000000       0.428571428571429      -0.400000000000000       0.009523809523810
         -0.250000000000000       0.428571428571429       0.000000000000000       0.009523809523810
         -0.250000000000000       0.428571428571429       0.200000000000000       0.009523809523810
         -0.250000000000000       0.428571428571429       0.400000000000000       0.009523809523810
         -0.083333333333333      -0.428571428571429       0.400000000000000       0.009523809523810
         -0.083333333333333      -0.142857142857143       0.200000000000000       0.009523809523810
         -0.083333333333333      -0.142857142857143       0.400000000000000       0.009523809523810
         -0.083333333333333       0.000000000000000      -0.400000000000000       0.009523809523810
         -0.083333333333333       0.000000000000000      -0.200000000000000       0.009523809523810
         -0.083333333333333       0.000000000000000       0.000000000000000       0.009523809523810
         -0.083333333333333       0.000000000000000       0.200000000000000       0.009523809523810
         -0.083333333333333       0.000000000000000       0.400000000000000       0.009523809523810
         -0.083333333333333       0.142857142857143      -0.400000000000000       0.009523809523810
         -0.083333333333333       0.142857142857143      -0.200000000000000       0.009523809523810
         -0.083333333333333       0.142857142857143       0.000000000000000       0.009523809523810
         -0.083333333333333       0.142857142857143       0.200000000000000       0.009523809523810
         -0.083333333333333       0.142857142857143       0.400000000000000       0.009523809523810
         -0.083333333333333       0.285714285714286      -0.400000000000000       0.009523809523810
         -0.083333333333333       0.285714285714286      -0.200000000000000       0.009523809523810
         -0.083333333333333       0.285714285714286       0.000000000000000       0.009523809523810
         -0.083333333333333       0.285714285714286       0.200000000000000       0.009523809523810
         -0.083333333333333       0.285714285714286       0.400000000000000       0.009523809523810
         -0.083333333333333       0.428571428571429       0.000000000000000       0.009523809523810
         -0.083333333333333       0.428571428571429       0.200000000000000       0.009523809523810
         -0.083333333333333       0.428571428571429       0.400000000000000       0.009523809523810
          0.083333333333333      -0.428571428571429       0.200000000000000       0.009523809523810
          0.083333333333333      -0.428571428571429       0.400000000000000       0.009523809523810
          0.083333333333333       0.142857142857143       0.000000000000000       0.009523809523810
          0.083333333333333       0.142857142857143       0.200000000000000       0.009523809523810
          0.083333333333333       0.142857142857143       0.400000000000000       0.009523809523810
          0.083333333333333       0.285714285714286      -0.400000000000000       0.009523809523810
          0.083333333333333       0.285714285714286      -0.200000000000000       0.009523809523810
          0.083333333333333       0.285714285714286       0.000000000000000       0.009523809523810
          0.083333333333333       0.285714285714286       0.200000000000000       0.009523809523810
          0.083333333333333       0.285714285714286       0.400000000000000       0.009523809523810
          0.083333333333333       0.428571428571429      -0.200000000000000       0.009523809523810
          0.083333333333333       0.428571428571429       0.000000000000000       0.009523809523810
          0.083333333333333       0.428571428571429       0.200000000000000       0.009523809523810
          0.083333333333333       0.428571428571429       0.400000000000000       0.009523809523810
          0.250000000000000      -0.428571428571429       0.200000000000000       0.009523809523810
          0.250000000000000      -0.285714285714286       0.000000000000000       0.009523809523810
          0.250000000000000      -0.285714285714286       0.200000000000000       0.009523809523810
          0.250000000000000      -0.285714285714286       0.400000000000000       0.009523809523810
          0.250000000000000      -0.142857142857143      -0.400000000000000       0.009523809523810
          0.250000000000000      -0.142857142857143      -0.200000000000000       0.009523809523810
          0.250000000000000      -0.142857142857143       0.000000000000000       0.009523809523810
          0.250000000000000      -0.142857142857143       0.200000000000000       0.009523809523810
          0.250000000000000      -0.142857142857143       0.400000000000000       0.009523809523810
          0.250000000000000       0.000000000000000      -0.400000000000000       0.009523809523810
          0.250000000000000       0.000000000000000      -0.200000000000000       0.009523809523810
          0.250000000000000       0.000000000000000       0.000000000000000       0.009523809523810
          0.250000000000000       0.000000000000000       0.200000000000000       0.009523809523810
          0.250000000000000       0.000000000000000       0.400000000000000       0.009523809523810
          0.250000000000000       0.142857142857143      -0.400000000000000       0.009523809523810
          0.250000000000000       0.142857142857143      -0.200000000000000       0.009523809523810
          0.250000000000000       0.142857142857143       0.000000000000000       0.009523809523810
          0.250000000000000       0.142857142857143       0.200000000000000       0.009523809523810
          0.250000000000000       0.142857142857143       0.400000000000000       0.009523809523810
          0.250000000000000       0.285714285714286      -0.200000000000000       0.009523809523810
          0.250000000000000       0.285714285714286       0.000000000000000       0.009523809523810
          0.250000000000000       0.428571428571429       0.400000000000000       0.009523809523810
          0.416666666666667      -0.428571428571429      -0.400000000000000       0.009523809523810
          0.416666666666667      -0.428571428571429      -0.200000000000000       0.009523809523810
          0.416666666666667      -0.428571428571429       0.000000000000000       0.009523809523810
          0.416666666666667      -0.285714285714286      -0.200000000000000       0.009523809523810
          0.416666666666667      -0.142857142857143      -0.400000000000000       0.009523809523810
          0.416666666666667      -0.142857142857143      -0.200000000000000       0.009523809523810
          0.416666666666667      -0.142857142857143       0.200000000000000       0.009523809523810
          0.416666666666667       0.000000000000000      -0.400000000000000       0.009523809523810
          0.416666666666667       0.142857142857143      -0.200000000000000       0.009523809523810
          0.416666666666667       0.142857142857143       0.000000000000000       0.009523809523810
          0.416666666666667       0.142857142857143       0.200000000000000       0.009523809523810
          0.416666666666667       0.142857142857143       0.400000000000000       0.009523809523810
          0.416666666666667       0.285714285714286      -0.400000000000000       0.009523809523810
          0.416666666666667       0.285714285714286       0.200000000000000       0.009523809523810
          0.416666666666667       0.428571428571429      -0.400000000000000       0.009523809523810
          0.416666666666667       0.428571428571429       0.000000000000000       0.009523809523810
%ENDBLOCK bs_kpoint_list

%BLOCK spectral_kpoint_list
         -0.416666666666667      -0.428571428571429      -0.400000000000000       0.009523809523810
         -0.416666666666667      -0.428571428571429      -0.200000000000000       0.009523809523810
         -0.416666666666667      -0.428571428571429       0.200000000000000       0.009523809523810
         -0.416666666666667      -0.285714285714286      -0.400000000000000       0.009523809523810
         -0.416666666666667      -0.285714285714286       0.000000000000000       0.009523809523810
         -0.416666666666667      -0.285714285714286       0.200000000000000       0.009523809523810
         -0.416666666666667      -0.142857142857143       0.400000000000000       0.009523809523810
         -0.416666666666667       0.000000000000000      -0.400000000000000       0.009523809523810
         -0.416666666666667       0.000000000000000      -0.200000000000000       0.009523809523810
         -0.416666666666667       0.000000000000000       0.000000000000000       0.009523809523810
         -0.416666666666667       0.000000000000000       0.200000000000000       0.009523809523810
         -0.416666666666667       0.142857142857143      -0.400000000000000       0.009523809523810
         -0.416666666666667       0.142857142857143       0.000000000000000       0.009523809523810
         -0.416666666666667       0.285714285714286      -0.400000000000000       0.009523809523810
         -0.416666666666667       0.285714285714286      -0.200000000000000       0.009523809523810
         -0.416666666666667       0.285714285714286       0.000000000000000       0.009523809523810
         -0.416666666666667       0.285714285714286       0.400000000000000       0.009523809523810
         -0.416666666666667       0.428571428571429      -0.400000000000000       0.009523809523810
         -0.416666666666667       0.428571428571429      -0.200000000000000       0.009523809523810
         -0.250000000000000      -0.428571428571429      -0.200000000000000       0.009523809523810
         -0.250000000000000      -0.428571428571429       0.000000000000000       0.009523809523810
         -0.250000000000000      -0.428571428571429       0.200000000000000       0.009523809523810
         -0.250000000000000      -0.428571428571429       0.400000000000000       0.009523809523810
         -0.250000000000000      -0.285714285714286      -0.400000000000000       0.009523809523810
         -0.250000000000000      -0.285714285714286      -0.200000000000000       0.009523809523810
         -0.250000000000000      -0.285714285714286       0.400000000000000       0.009523809523810
         -0.250000000000000       0.285714285714286       0.200000000000000       0.009523809523810
         -0.250000000000000       0.285714285714286       0.400000000000000       0.009523809523810
         -0.250000000000000       0.428571428571429      -0.400000000000000       0.009523809523810
         -0.250000000000000       0.428571428571429       0.000000000000000       0.009523809523810
         -0.250000000000000       0.428571428571429       0.200000000000000       0.009523809523810
         -0.250000000000000       0.428571428571429       0.400000000000000       0.009523809523810
         -0.083333333333333      -0.428571428571429       0.400000000000000       0.009523809523810
         -0.083333333333333      -0.142857142857143       0.200000000000000       0.009523809523810
         -0.083333333333333      -0.142857142857143       0.400000000000000       0.009523809523810
         -0.083333333333333       0.000000000000000      -0.400000000000000       0.009523809523810
         -0.083333333333333       0.000000000000000      -0.200000000000000       0.009523809523810
         -0.083333333333333       0.000000000000000       0.000000000000000       0.009523809523810
         -0.083333333333333       0.000000000000000       0.200000000000000       0.009523809523810
         -0.083333333333333       0.000000000000000       0.400000000000000       0.009523809523810
         -0.083333333333333       0.142857142857143      -0.400000000000000       0.009523809523810
         -0.083333333333333       0.142857142857143      -0.200000000000000       0.009523809523810
         -0.083333333333333       0.142857142857143       0.000000000000000       0.009523809523810
         -0.083333333333333       0.142857142857143       0.200000000000000       0.009523809523810
         -0.083333333333333       0.142857142857143       0.400000000000000       0.009523809523810
         -0.083333333333333       0.285714285714286      -0.400000000000000       0.009523809523810
         -0.083333333333333       0.285714285714286      -0.200000000000000       0.009523809523810
         -0.083333333333333       0.285714285714286       0.000000000000000       0.009523809523810