# CELL file written 13:07:46 (GMT+1.0) 2nd October 2018 from run castep

%BLOCK lattice_cart
   ANG
       4.27730056177654       0.235468356944361E-02   0.856427152249558E-03
     -0.267777414709428E-02    4.30506274510890       0.186153193502740E-02
     -0.225411668378786E-02    2.01776315700611        5.19027584111156    
%ENDBLOCK lattice_cart

%BLOCK positions_frac
   H              0.380996907371199       0.502732575104804       0.501424708092767
   H              0.434064125612744       0.776937249196816       0.039087462189049
   H              0.385538091270551       0.579602463863139       0.785547622127695
   H              0.827026873391925       0.176671951514502       0.139047295297266
   H              0.612445340615608       0.777179077649800       0.538943384930113
   H              0.064921597153817       0.407216621927375       0.969390336579492
   H              0.982047394019608       0.407356529662826       0.468831628441522
   H              0.524405693193365       0.984125103411631       0.241819810881268
   H              0.219804253985364       0.176391369667607       0.638821039907692
   H              0.207945096945790       0.947704711824623       0.480617518364111
   H              0.837955598432849       0.948898733849050       0.980256646682022
   H              0.664495770911704       0.501722726819516       0.001413046870221
   H              0.647345548409585       0.371563074433892       0.654066482623663
   H              0.326163968610834       0.435425911120678       0.246355094193209
   H              0.898806936309415       0.240375592685527       0.231203619004686
   H              0.147706520625260       0.240667408647116       0.730544994221644
   H              0.160540573426303       0.032303350550050       0.099562499435291
   H              0.881302610264600       0.110024220216071       0.883667465488963
   H              0.933637481120787       0.834735945042179       0.346303268507850
   H              0.719152639279103       0.435094278620046       0.746317580569173
   H              0.885759784218891       0.033150582558808       0.599080630478783
   H              0.165326885747414       0.108995626384061       0.383947743337487
   H              0.660321378043394       0.578767732464926       0.286058096256106
   H              0.481185412510202       0.204570287478359       0.915852463017254
   H              0.522543539573219       0.983405608889359       0.742389937596686
   H              0.708229648634618       0.662925594039241       0.905182185045860
   H              0.111912379714434       0.834934325431446       0.846070447240540
   H              0.023587588950463       0.628536947293177       0.142829024359802
   H              0.564131778570733       0.204569463269312       0.416387725432494
   H              0.338198658258458       0.663895452287032       0.404655901065930
   H              0.398261374493227       0.371139449405220       0.154664248730046
   H              0.021555063972594       0.627679538086848       0.643396522530902
   C              0.646494467230838       0.999823103843241       0.574361458912398
   C              0.146253186016455       0.612102423763818       0.810945742896016
   C              0.899616781504139       0.612105205728893       0.310852531251506
   C              0.399815718277173       0.999729763269009       0.074243837440497
%ENDBLOCK positions_frac

FIX_COM : true

%BLOCK species_gamma
   radsectesla
   H          267522128.0    
%ENDBLOCK species_gamma

%BLOCK species_pot
   H       1|0.6|13|15|17|10(qc=8)[]
   C       2|1.4|10|12|13|20:21(qc=7)[]
%ENDBLOCK species_pot

SYMMETRY_TOL :     0.001000

%BLOCK symmetry_ops
# Symm. op. 1       E
          1.000000000000000       0.000000000000000       0.000000000000000
         -0.000000000000000       1.000000000000000       0.000000000000000
         -0.000000000000000      -0.000000000000000       1.000000000000000
          0.000000000000000       0.000000000000000       0.000000000000000
%ENDBLOCK symmetry_ops

%BLOCK kpoint_list
         -0.416666666666667      -0.428571428571429      -0.400000000000000       0.009523809523810
         -0.416666666666667      -0.428571428571429      -0.200000000000000       0.009523809523810
         -0.416666666666667      -0.428571428571429       0.200000000000000       0.009523809523810
         -0.416666666666667      -0.285714285714286      -0.400000000000000       0.009523809523810
         -0.416666666666667      -0.285714285714286       0.000000000000000       0.009523809523810
         -0.416666666666667      -0.285714285714286       0.200000000000000       0.009523809523810
         -0.416666666666667      -0.142857142857143       0.400000000000000       0.009523809523810
         -0.416666666666667       0.000000000000000      -0.400000000000000       0.009523809523810
         -0.416666666666667       0.000000000000000      -0.200000000000000       0.009523809523810
         -0.416666666666667       0.000000000000000       0.000000000000000       0.009523809523810
         -0.416666666666667       0.000000000000000       0.200000000000000       0.009523809523810
         -0.416666666666667       0.142857142857143      -0.400000000000000       0.009523809523810
         -0.416666666666667       0.142857142857143       0.000000000000000       0.009523809523810
         -0.416666666666667       0.285714285714286      -0.400000000000000       0.009523809523810
         -0.416666666666667       0.285714285714286      -0.200000000000000       0.009523809523810
         -0.416666666666667       0.285714285714286       0.000000000000000       0.009523809523810
         -0.416666666666667       0.285714285714286       0.400000000000000       0.009523809523810
         -0.416666666666667       0.428571428571429      -0.400000000000000       0.009523809523810
         -0.416666666666667       0.428571428571429      -0.200000000000000       0.009523809523810
         -0.250000000000000      -0.428571428571429      -0.200000000000000       0.009523809523810
         -0.250000000000000      -0.428571428571429       0.000000000000000       0.009523809523810
         -0.250000000000000      -0.428571428571429       0.200000000000000       0.009523809523810
         -0.250000000000000      -0.428571428571429       0.400000000000000       0.009523809523810
         -0.250000000000000      -0.285714285714286      -0.400000000000000       0.009523809523810
         -0.250000000000000      -0.285714285714286      -0.200000000000000       0.009523809523810
         -0.250000000000000      -0.285714285714286       0.400000000000000       0.009523809523810
         -0.250000000000000       0.285714285714286       0.200000000000000       0.009523809523810
         -0.250000000000000       0.285714285714286       0.400000000000000       0.009523809523810
         -0.250000000000000       0.428571428571429      -0.400000000000000       0.009523809523810
         -0.250000000000000       0.428571428571429       0.000000000000000       0.009523809523810
         -0.250000000000000       0.428571428571429       0.200000000000000       0.009523809523810
         -0.250000000000000       0.428571428571429       0.400000000000000       0.009523809523810
         -0.083333333333333      -0.428571428571429       0.400000000000000       0.009523809523810
         -0.083333333333333      -0.142857142857143       0.200000000000000       0.009523809523810
         -0.083333333333333      -0.142857142857143       0.400000000000000       0.009523809523810
         -0.083333333333333       0.000000000000000      -0.400000000000000       0.009523809523810
         -0.083333333333333       0.000000000000000      -0.200000000000000       0.009523809523810
         -0.083333333333333       0.000000000000000       0.000000000000000       0.009523809523810
         -0.083333333333333       0.000000000000000       0.200000000000000       0.009523809523810
         -0.083333333333333       0.000000000000000       0.400000000000000       0.009523809523810
         -0.083333333333333       0.142857142857143      -0.400000000000000       0.009523809523810
         -0.083333333333333       0.142857142857143      -0.200000000000000       0.009523809523810
         -0.083333333333333       0.142857142857143       0.000000000000000       0.009523809523810
         -0.083333333333333       0.142857142857143       0.200000000000000       0.009523809523810
         -0.083333333333333       0.142857142857143       0.400000000000000       0.009523809523810
         -0.083333333333333       0.285714285714286      -0.400000000000000       0.009523809523810
         -0.083333333333333       0.285714285714286      -0.200000000000000       0.009523809523810
         -0.083333333333333       0.285714285714286       0.000000000000000       0.009523809523810
         -0.083333333333333       0.285714285714286       0.200000000000000       0.009523809523810
         -0.083333333333333       0.285714285714286       0.400000000000000       0.009523809523810
         -0.083333333333333       0.428571428571429       0.000000000000000       0.009523809523810
         -0.083333333333333       0.428571428571429       0.200000000000000       0.009523809523810
         -0.083333333333333       0.428571428571429       0.400000000000000       0.009523809523810
          0.083333333333333      -0.428571428571429       0.200000000000000       0.009523809523810
          0.083333333333333      -0.428571428571429       0.400000000000000       0.009523809523810
          0.083333333333333       0.142857142857143       0.000000000000000       0.009523809523810
          0.083333333333333       0.142857142857143       0.200000000000000       0.009523809523810
          0.083333333333333       0.142857142857143       0.400000000000000       0.009523809523810
          0.083333333333333       0.285714285714286      -0.400000000000000       0.009523809523810
          0.083333333333333       0.285714285714286      -0.200000000000000       0.009523809523810
          0.083333333333333       0.285714285714286       0.000000000000000       0.009523809523810
          0.083333333333333       0.285714285714286       0.200000000000000       0.009523809523810
          0.083333333333333       0.285714285714286       0.400000000000000       0.009523809523810
          0.083333333333333       0.428571428571429      -0.200000000000000       0.009523809523810
          0.083333333333333       0.428571428571429       0.000000000000000       0.009523809523810
          0.083333333333333       0.428571428571429       0.200000000000000       0.009523809523810
          0.083333333333333       0.428571428571429       0.400000000000000       0.009523809523810
          0.250000000000000      -0.428571428571429       0.200000000000000       0.009523809523810
          0.250000000000000      -0.285714285714286       0.000000000000000       0.009523809523810
          0.250000000000000      -0.285714285714286       0.200000000000000       0.009523809523810
          0.250000000000000      -0.285714285714286       0.400000000000000       0.009523809523810
          0.250000000000000      -0.142857142857143      -0.400000000000000       0.009523809523810
          0.250000000000000      -0.142857142857143      -0.200000000000000       0.009523809523810
          0.250000000000000      -0.142857142857143       0.000000000000000       0.009523809523810
          0.250000000000000      -0.142857142857143       0.200000000000000       0.009523809523810
          0.250000000000000      -0.142857142857143       0.400000000000000       0.009523809523810
          0.250000000000000       0.000000000000000      -0.400000000000000       0.009523809523810
          0.250000000000000       0.000000000000000      -0.200000000000000       0.009523809523810
          0.250000000000000       0.000000000000000       0.000000000000000       0.009523809523810
          0.250000000000000       0.000000000000000       0.200000000000000       0.009523809523810
          0.250000000000000       0.000000000000000       0.400000000000000       0.009523809523810
          0.250000000000000       0.142857142857143      -0.400000000000000       0.009523809523810
          0.250000000000000       0.142857142857143      -0.200000000000000       0.009523809523810
          0.250000000000000       0.142857142857143       0.000000000000000       0.009523809523810
          0.250000000000000       0.142857142857143       0.200000000000000       0.009523809523810
          0.250000000000000       0.142857142857143       0.400000000000000       0.009523809523810
          0.250000000000000       0.285714285714286      -0.200000000000000       0.009523809523810
          0.250000000000000       0.285714285714286       0.000000000000000       0.009523809523810
          0.250000000000000       0.428571428571429       0.400000000000000       0.009523809523810
          0.416666666666667      -0.428571428571429      -0.400000000000000       0.009523809523810
          0.416666666666667      -0.428571428571429      -0.200000000000000       0.009523809523810
          0.416666666666667      -0.428571428571429       0.000000000000000       0.009523809523810
          0.416666666666667      -0.285714285714286      -0.200000000000000       0.009523809523810
          0.416666666666667      -0.142857142857143      -0.400000000000000       0.009523809523810
          0.416666666666667      -0.142857142857143      -0.200000000000000       0.009523809523810
          0.416666666666667      -0.142857142857143       0.200000000000000       0.009523809523810
          0.416666666666667       0.000000000000000      -0.400000000000000       0.009523809523810
          0.416666666666667       0.142857142857143      -0.200000000000000       0.009523809523810
          0.416666666666667       0.142857142857143       0.000000000000000       0.009523809523810
          0.416666666666667       0.142857142857143       0.200000000000000       0.009523809523810
          0.416666666666667       0.142857142857143       0.400000000000000       0.009523809523810
          0.416666666666667       0.285714285714286      -0.400000000000000       0.009523809523810
          0.416666666666667       0.285714285714286       0.200000000000000       0.009523809523810
          0.416666666666667       0.428571428571429      -0.400000000000000       0.009523809523810
          0.416666666666667       0.428571428571429       0.000000000000000       0.009523809523810
%ENDBLOCK kpoint_list

%BLOCK bs_kpoint_list
         -0.416666666666667      -0.428571428571429      -0.400000000000000       0.009523809523810
         -0.416666666666667      -0.428571428571429      -0.200000000000000       0.009523809523810
         -0.416666666666667      -0.428571428571429       0.200000000000000       0.009523809523810
         -0.416666666666667      -0.285714285714286      -0.400000000000000       0.009523809523810
         -0.416666666666667      -0.285714285714286       0.000000000000000       0.009523809523810
         -0.416666666666667      -0.285714285714286       0.200000000000000       0.009523809523810
         -0.416666666666667      -0.142857142857143       0.400000000000000       0.009523809523810
         -0.416666666666667       0.000000000000000      -0.400000000000000       0.009523809523810
         -0.416666666666667       0.000000000000000      -0.200000000000000       0.009523809523810
         -0.416666666666667       0.000000000000000       0.000000000000000       0.009523809523810
         -0.416666666666667       0.000000000000000       0.200000000000000       0.009523809523810
         -0.416666666666667       0.142857142857143      -0.400000000000000       0.009523809523810
         -0.416666666666667       0.142857142857143       0.000000000000000       0.009523809523810
         -0.416666666666667       0.285714285714286      -0.400000000000000       0.009523809523810
         -0.416666666666667       0.285714285714286      -0.200000000000000       0.009523809523810
         -0.416666666666667       0.285714285714286       0.000000000000000       0.009523809523810
         -0.416666666666667       0.285714285714286       0.400000000000000       0.009523809523810
         -0.416666666666667       0.428571428571429      -0.400000000000000       0.009523809523810
         -0.416666666666667       0.428571428571429      -0.200000000000000       0.009523809523810
         -0.250000000000000      -0.428571428571429      -0.200000000000000       0.009523809523810
         -0.250000000000000      -0.428571428571429       0.000000000000000       0.009523809523810
         -0.250000000000000      -0.428571428571429       0.200000000000000       0.009523809523810
         -0.250000000000000      -0.428571428571429       0.400000000000000       0.009523809523810
         -0.250000000000000      -0.285714285714286      -0.400000000000000       0.009523809523810
         -0.250000000000000      -0.285714285714286      -0.200000000000000       0.009523809523810
         -0.250000000000000      -0.285714285714286       0.400000000000000       0.009523809523810
         -0.250000000000000       0.285714285714286       0.200000000000000       0.009523809523810
         -0.250000000000000       0.285714285714286       0.400000000000000       0.009523809523810
         -0.250000000000000       0.428571428571429      -0.400000000000000       0.009523809523810
         -0.250000000000000       0.428571428571429       0.000000000000000       0.009523809523810
         -0.250000000000000       0.428571428571429       0.200000000000000       0.009523809523810
         -0.250000000000000       0.428571428571429       0.400000000000000       0.009523809523810
         -0.083333333333333      -0.428571428571429       0.400000000000000       0.009523809523810
         -0.083333333333333      -0.142857142857143       0.200000000000000       0.009523809523810
         -0.083333333333333      -0.142857142857143       0.400000000000000       0.009523809523810
         -0.083333333333333       0.000000000000000      -0.400000000000000       0.009523809523810
         -0.083333333333333       0.000000000000000      -0.200000000000000       0.009523809523810
         -0.083333333333333       0.000000000000000       0.000000000000000       0.009523809523810
         -0.083333333333333       0.000000000000000       0.200000000000000       0.009523809523810
         -0.083333333333333       0.000000000000000       0.400000000000000       0.009523809523810
         -0.083333333333333       0.142857142857143      -0.400000000000000       0.009523809523810
         -0.083333333333333       0.142857142857143      -0.200000000000000       0.009523809523810
         -0.083333333333333       0.142857142857143       0.000000000000000       0.009523809523810
         -0.083333333333333       0.142857142857143       0.200000000000000       0.009523809523810
         -0.083333333333333       0.142857142857143       0.400000000000000       0.009523809523810
         -0.083333333333333       0.285714285714286      -0.400000000000000       0.009523809523810
         -0.083333333333333       0.285714285714286      -0.200000000000000       0.009523809523810
         -0.083333333333333       0.285714285714286       0.000000000000000       0.009523809523810
         -0.083333333333333       0.285714285714286       0.200000000000000       0.009523809523810
         -0.083333333333333       0.285714285714286       0.400000000000000       0.009523809523810
         -0.083333333333333       0.428571428571429       0.000000000000000       0.009523809523810
         -0.083333333333333       0.428571428571429       0.200000000000000       0.009523809523810
         -0.083333333333333       0.428571428571429       0.400000000000000       0.009523809523810
          0.083333333333333      -0.428571428571429       0.200000000000000       0.009523809523810
          0.083333333333333      -0.428571428571429       0.400000000000000       0.009523809523810
          0.083333333333333       0.142857142857143       0.000000000000000       0.009523809523810
          0.083333333333333       0.142857142857143       0.200000000000000       0.009523809523810
          0.083333333333333       0.142857142857143       0.400000000000000       0.009523809523810
          0.083333333333333       0.285714285714286      -0.400000000000000       0.009523809523810
          0.083333333333333       0.285714285714286      -0.200000000000000       0.009523809523810
          0.083333333333333       0.285714285714286       0.000000000000000       0.009523809523810
          0.083333333333333       0.285714285714286       0.200000000000000       0.009523809523810
          0.083333333333333       0.285714285714286       0.400000000000000       0.009523809523810
          0.083333333333333       0.428571428571429      -0.200000000000000       0.009523809523810
          0.083333333333333       0.428571428571429       0.000000000000000       0.009523809523810
          0.083333333333333       0.428571428571429       0.200000000000000       0.009523809523810
          0.083333333333333       0.428571428571429       0.400000000000000       0.009523809523810
          0.250000000000000      -0.428571428571429       0.200000000000000       0.009523809523810
          0.250000000000000      -0.285714285714286       0.000000000000000       0.009523809523810
          0.250000000000000      -0.285714285714286       0.200000000000000       0.009523809523810
          0.250000000000000      -0.285714285714286       0.400000000000000       0.009523809523810
          0.250000000000000      -0.142857142857143      -0.400000000000000       0.009523809523810
          0.250000000000000      -0.142857142857143      -0.200000000000000       0.009523809523810
          0.250000000000000      -0.142857142857143       0.000000000000000       0.009523809523810
          0.250000000000000      -0.142857142857143       0.200000000000000       0.009523809523810
          0.250000000000000      -0.142857142857143       0.400000000000000       0.009523809523810
          0.250000000000000       0.000000000000000      -0.400000000000000       0.009523809523810
          0.250000000000000       0.000000000000000      -0.200000000000000       0.009523809523810
          0.250000000000000       0.000000000000000       0.000000000000000       0.009523809523810
          0.250000000000000       0.000000000000000       0.200000000000000       0.009523809523810
          0.250000000000000       0.000000000000000       0.400000000000000       0.009523809523810
          0.250000000000000       0.142857142857143      -0.400000000000000       0.009523809523810
          0.250000000000000       0.142857142857143      -0.200000000000000       0.009523809523810
          0.250000000000000       0.142857142857143       0.000000000000000       0.009523809523810
          0.250000000000000       0.142857142857143       0.200000000000000       0.009523809523810
          0.250000000000000       0.142857142857143       0.400000000000000       0.009523809523810
          0.250000000000000       0.285714285714286      -0.200000000000000       0.009523809523810
          0.250000000000000       0.285714285714286       0.000000000000000       0.009523809523810
          0.250000000000000       0.428571428571429       0.400000000000000       0.009523809523810
          0.416666666666667      -0.428571428571429      -0.400000000000000       0.009523809523810
          0.416666666666667      -0.428571428571429      -0.200000000000000       0.009523809523810
          0.416666666666667      -0.428571428571429       0.000000000000000       0.009523809523810
          0.416666666666667      -0.285714285714286      -0.200000000000000       0.009523809523810
          0.416666666666667      -0.142857142857143      -0.400000000000000       0.009523809523810
          0.416666666666667      -0.142857142857143      -0.200000000000000       0.009523809523810
          0.416666666666667      -0.142857142857143       0.200000000000000       0.009523809523810
          0.416666666666667       0.000000000000000      -0.400000000000000       0.009523809523810
          0.416666666666667       0.142857142857143      -0.200000000000000       0.009523809523810
          0.416666666666667       0.142857142857143       0.000000000000000       0.009523809523810
          0.416666666666667       0.142857142857143       0.200000000000000       0.009523809523810
          0.416666666666667       0.142857142857143       0.400000000000000       0.009523809523810
          0.416666666666667       0.285714285714286      -0.400000000000000       0.009523809523810
          0.416666666666667       0.285714285714286       0.200000000000000       0.009523809523810
          0.416666666666667       0.428571428571429      -0.400000000000000       0.009523809523810
          0.416666666666667       0.428571428571429       0.000000000000000       0.009523809523810
%ENDBLOCK bs_kpoint_list

%BLOCK spectral_kpoint_list
         -0.416666666666667      -0.428571428571429      -0.400000000000000       0.009523809523810
         -0.416666666666667      -0.428571428571429      -0.200000000000000       0.009523809523810
         -0.416666666666667      -0.428571428571429       0.200000000000000       0.009523809523810
         -0.416666666666667      -0.285714285714286      -0.400000000000000       0.009523809523810
         -0.416666666666667      -0.285714285714286       0.000000000000000       0.009523809523810
         -0.416666666666667      -0.285714285714286       0.200000000000000       0.009523809523810
         -0.416666666666667      -0.142857142857143       0.400000000000000       0.009523809523810
         -0.416666666666667       0.000000000000000      -0.400000000000000       0.009523809523810
         -0.416666666666667       0.000000000000000      -0.200000000000000       0.009523809523810
         -0.416666666666667       0.000000000000000       0.000000000000000       0.009523809523810
         -0.416666666666667       0.000000000000000       0.200000000000000       0.009523809523810
         -0.416666666666667       0.142857142857143      -0.400000000000000       0.009523809523810
         -0.416666666666667       0.142857142857143       0.000000000000000       0.009523809523810
         -0.416666666666667       0.285714285714286      -0.400000000000000       0.009523809523810
         -0.416666666666667       0.285714285714286      -0.200000000000000       0.009523809523810
         -0.416666666666667       0.285714285714286       0.000000000000000       0.009523809523810
         -0.416666666666667       0.285714285714286       0.400000000000000       0.009523809523810
         -0.416666666666667       0.428571428571429      -0.400000000000000       0.009523809523810
         -0.416666666666667       0.428571428571429      -0.200000000000000       0.009523809523810
         -0.250000000000000      -0.428571428571429      -0.200000000000000       0.009523809523810
         -0.250000000000000      -0.428571428571429       0.000000000000000       0.009523809523810
         -0.250000000000000      -0.428571428571429       0.200000000000000       0.009523809523810
         -0.250000000000000      -0.428571428571429       0.400000000000000       0.009523809523810
         -0.250000000000000      -0.285714285714286      -0.400000000000000       0.009523809523810
         -0.250000000000000      -0.285714285714286      -0.200000000000000       0.009523809523810
         -0.250000000000000      -0.285714285714286       0.400000000000000       0.009523809523810
         -0.250000000000000       0.285714285714286       0.200000000000000       0.009523809523810
         -0.250000000000000       0.285714285714286       0.400000000000000       0.009523809523810
         -0.250000000000000       0.428571428571429      -0.400000000000000       0.009523809523810
         -0.250000000000000       0.428571428571429       0.000000000000000       0.009523809523810
         -0.250000000000000       0.428571428571429       0.200000000000000       0.009523809523810
         -0.250000000000000       0.428571428571429       0.400000000000000       0.009523809523810
         -0.083333333333333      -0.428571428571429       0.400000000000000       0.009523809523810
         -0.083333333333333      -0.142857142857143       0.200000000000000       0.009523809523810
         -0.083333333333333      -0.142857142857143       0.400000000000000       0.009523809523810
         -0.083333333333333       0.000000000000000      -0.400000000000000       0.009523809523810
         -0.083333333333333       0.000000000000000      -0.200000000000000       0.009523809523810
         -0.083333333333333       0.000000000000000       0.000000000000000       0.009523809523810
         -0.083333333333333       0.000000000000000       0.200000000000000       0.009523809523810
         -0.083333333333333       0.000000000000000       0.400000000000000       0.009523809523810
         -0.083333333333333       0.142857142857143      -0.400000000000000       0.009523809523810
         -0.083333333333333       0.142857142857143      -0.200000000000000       0.009523809523810
         -0.083333333333333       0.142857142857143       0.000000000000000       0.009523809523810
         -0.083333333333333       0.142857142857143       0.200000000000000       0.009523809523810
         -0.083333333333333       0.142857142857143       0.400000000000000       0.009523809523810
         -0.083333333333333       0.285714285714286      -0.400000000000000       0.009523809523810
         -0.083333333333333       0.285714285714286      -0.200000000000000       0.009523809523810
         -0.083333333333333       0.285714285714286       0.000000000000000       0.009523809523810